 # Version information for this restart file 
 # current date 2018-11-28 17:34:57.111
 # current working dir /scratch/ongari/aiida_run/cf/11/8581-e11b-4554-8775-48d7ad495f6e
 # Program compiled at                              Thu Jul 5 11:15:01 CEST 2018
 # Program compiled on                                                      f016
 # Program compiled for                      linux-rhel7-x86_E5v4_Mellanox-intel
 # Source code revision number                                         svn:18091
 &GLOBAL
   EXTENDED_FFT_LENGTHS  T
   PRINT_LEVEL  MEDIUM
   PROJECT_NAME aiida
   RUN_TYPE  CELL_OPT
 &END GLOBAL
 &MOTION
   &GEO_OPT
     MAX_ITER  20
   &END GEO_OPT
   &CELL_OPT
     OPTIMIZER  BFGS
     MAX_ITER  140
     MAX_DR     2.9999999999999999E-02
     MAX_FORCE     1.0000000000000000E-03
     RMS_DR     1.4999999999999999E-02
     RMS_FORCE     6.9999999999999999E-04
     STEP_START_VAL  140
     TYPE  DIRECT_CELL_OPT
     EXTERNAL_PRESSURE     0.0000000000000000E+00
     KEEP_ANGLES  F
     KEEP_SYMMETRY  F
     PRESSURE_TOLERANCE     1.0000000000000000E+02
     &BFGS
       TRUST_RADIUS     2.5000000000000000E-01
     &END BFGS
   &END CELL_OPT
   &MD
     STEPS  20
   &END MD
   &PRINT
     &TRAJECTORY  SILENT
       FORMAT  DCD_ALIGNED_CELL
       &EACH
         CELL_OPT  1
       &END EACH
     &END TRAJECTORY
     &CELL  OFF
     &END CELL
     &VELOCITIES  OFF
     &END VELOCITIES
     &FORCES  OFF
     &END FORCES
     &STRESS  OFF
     &END STRESS
     &RESTART  SILENT
       BACKUP_COPIES  0
       &EACH
         CELL_OPT  1
       &END EACH
     &END RESTART
     &RESTART_HISTORY  SILENT
       &EACH
         CELL_OPT  100
       &END EACH
     &END RESTART_HISTORY
   &END PRINT
 &END MOTION
 &FORCE_EVAL
   METHOD  QS
   STRESS_TENSOR  ANALYTICAL
   &DFT
     BASIS_SET_FILE_NAME BASIS_MOLOPT
     BASIS_SET_FILE_NAME BASIS_MOLOPT_UCL
     POTENTIAL_FILE_NAME GTH_POTENTIALS
     WFN_RESTART_FILE_NAME ./parent_calc/aiida-RESTART.wfn
     UKS  F
     MULTIPLICITY  1
     CHARGE  0
     &SCF
       MAX_ITER_LUMO  10000
       MAX_SCF  50
       EPS_SCF     9.9999999999999995E-07
       SCF_GUESS  RESTART
       &OT  T
         MINIMIZER  DIIS
         PRECONDITIONER  FULL_ALL
       &END OT
       &OUTER_SCF  T
         EPS_SCF     9.9999999999999995E-07
         MAX_SCF  10
       &END OUTER_SCF
       &PRINT
         &RESTART  SILENT
           BACKUP_COPIES  0
           &EACH
             QS_SCF  20
           &END EACH
         &END RESTART
         &RESTART_HISTORY  OFF
         &END RESTART_HISTORY
       &END PRINT
     &END SCF
     &QS
       METHOD  GPW
     &END QS
     &MGRID
       NGRIDS  4
       CUTOFF     6.0000000000000000E+02
       REL_CUTOFF     5.0000000000000000E+01
     &END MGRID
     &XC
       DENSITY_CUTOFF     1.0000000000000000E-10
       GRADIENT_CUTOFF     1.0000000000000000E-10
       TAU_CUTOFF     1.0000000000000000E-10
       &XC_FUNCTIONAL  NO_SHORTCUT
         &PBE  T
         &END PBE
       &END XC_FUNCTIONAL
       &VDW_POTENTIAL
         POTENTIAL_TYPE  PAIR_POTENTIAL
         &PAIR_POTENTIAL
           TYPE  DFTD3(BJ)
           PARAMETER_FILE_NAME dftd3.dat
           REFERENCE_FUNCTIONAL PBE
         &END PAIR_POTENTIAL
       &END VDW_POTENTIAL
     &END XC
     &POISSON
       PERIODIC  XYZ
     &END POISSON
     &PRINT
       &MO_CUBES  OFF
         STRIDE  1 1 1
         WRITE_CUBE  F
         NLUMO  1
         NHOMO  1
       &END MO_CUBES
       &E_DENSITY_CUBE  OFF
         STRIDE  1 1 1
       &END E_DENSITY_CUBE
       &MULLIKEN  OFF
       &END MULLIKEN
       &LOWDIN  OFF
       &END LOWDIN
       &HIRSHFELD  OFF
       &END HIRSHFELD
     &END PRINT
   &END DFT
   &SUBSYS
     &CELL
       A     1.4804216732847438E+01    0.0000000000000000E+00    0.0000000000000000E+00
       B    -6.6135472892696336E+00    1.3227967099961937E+01    0.0000000000000000E+00
       C    -6.2135800148105824E+00   -8.5627011081717475E-01    5.8593477638989979E+00
       MULTIPLE_UNIT_CELL  1 1 1
     &END CELL
     &COORD
B    1.6619324079900701E+00    7.5014981953151025E+00    1.9052942229483192E+00
C    4.1929929323839366E-01    8.3551902044531641E+00    1.8725857367834242E+00
B   -2.3237153911553884E-01    1.2038541008457734E+01    1.2178959540755063E+00
C   -5.5558303946181131E-01    1.0485517561415836E+01    1.3449860916169771E+00
B   -2.8959215678887733E+00    7.7164991477955471E+00    9.1902091862030399E-01
C   -1.6768261928918700E+00    8.4819275305146853E+00    9.5986738683577388E-01
O    8.3661461574291818E-01    1.2655035343599899E+01    1.6926594142780609E+00
C    7.4013702022375210E+00    3.3356347784787244E+00    1.5879616278345234E+00
C    7.0632078506364673E+00    7.7987026445400698E-01    1.7971986184368647E+00
C    8.0823471562882041E+00    1.9647878075959588E+00    1.7155030955123030E+00
H    9.0136890948280595E+00    1.7489502226880087E+00    1.9370110554073376E+00
O   -4.1451447663160499E+00    8.1882625257651362E+00    8.4518206288232900E-01
C    7.3920973688990079E+00    5.9113477246584276E+00    1.3216026973470321E+00
C    9.7028711464259718E+00    7.0468045461935835E+00    1.0932696047292476E+00
C    8.2444283957257376E+00    7.1591088659176823E+00    1.1611004654980031E+00
H    7.8290786583286831E+00    8.1571882181730615E+00    1.1146598987157237E+00
O    1.7510654079245911E+00    6.1568807465306410E+00    1.8589593457602982E+00
C    5.4242794619860790E+00    4.6530229606348978E+00    9.6396857483675535E-01
C    4.1603631128256575E+00    5.9824485203082736E+00    5.1208478769747723E-01
C    4.1707770725072901E+00    4.5567946002273496E+00    8.3050924077202859E-01
H    3.4708925985960488E+00    3.6086687563578908E+00    8.7622985874259895E-01
O   -3.0218459026182449E+00    6.2739587266252768E+00    1.1777392132934716E+00
C    8.0138646292809064E+00    4.6279318216119805E+00    1.5444505475195760E+00
C    1.0340503408912584E+01    5.8171443716714872E+00    1.2987499316116227E+00
C    9.6095219070241509E+00    4.6302100902085837E+00    1.6500679212956841E+00
H    9.9129803364850009E+00    3.4164759845051611E+00    2.0033783733105639E+00
O   -1.1620211591990981E+00    1.3025855700780186E+01    9.0219883315974703E-01
C    6.1109784925527650E+00    3.3039386023175994E+00    1.0623598425990184E+00
C    6.1099261504324938E+00    1.0704885749591133E+00    9.7190964463519769E-01
C    5.4127669809755474E+00    2.2942783399390536E+00    8.1687413608583148E-01
H    4.3602861723750275E+00    2.3057825895654811E+00    3.6120210094111643E-01
O    3.1704588419068909E+00    7.8215163760835926E+00    1.6777461146939430E+00
C    5.8980286048876831E+00    5.8144911801882779E+00    1.3942046465127014E+00
C    2.9086978147945333E+00    6.2846321537775731E+00    2.1446519831134325E+00
C    4.5905174805666382E+00    7.2176880612465339E+00    2.0178974938483933E+00
H    5.8789671870207778E+00    8.2912062707675158E+00    1.7553980632169097E+00
C    5.2688016443988706E-01    9.7249526280143090E+00    1.8041175691705080E+00
C   -1.8169353442480327E+00    9.8300685208769085E+00    1.0984895351217332E+00
C   -8.0339981134637295E-01    7.6760678335389736E+00    1.5000324551246695E+00
H   -7.9116641556326328E-01    6.6007350516652581E+00    1.3833396234740758E+00
H    1.4525013038554893E+00    1.0201278864676098E+01    2.1158760716319005E+00
H   -2.4176577196845059E+00    1.0421201445139456E+01    5.8709480190625551E-01
B   -2.1195331592151931E+00    6.1464724684887440E+00    4.6755789525553082E+00
C   -3.3498869229904957E+00    6.9525832566148296E+00    4.5708911658957883E+00
B   -4.3508251126652331E+00    1.0635853422028488E+01    4.4823726902426806E+00
C   -4.4571141229948097E+00    9.1399388357833011E+00    4.4077231312458700E+00
B   -6.9225701178989167E+00    6.1894041549283090E+00    4.1423713136235873E+00
C   -5.6547660332388050E+00    7.0595618806646847E+00    4.2216832243065552E+00
O   -3.1576375697639207E+00    1.1393934521429928E+01    4.7321256651700949E+00
C    3.4054333232869420E+00    1.8732085319851790E+00    4.5813381722794926E+00
C    3.0447658203824499E+00   -5.2711599651620233E-01    4.7173195691659684E+00
C    4.0613607403848597E+00    5.9582359092637172E-01    4.7158027273196215E+00
H    4.8531456460846263E+00    4.5905560893001024E-01    5.2973610441245169E+00
O   -8.3741662285334932E+00    6.6695451400059023E+00    4.3214023259298733E+00
C    3.5241286466508082E+00    4.4173347275208474E+00    4.5866132524684469E+00
C    5.6969745455835783E+00    5.5866894215864571E+00    4.3146377780400940E+00
C    4.2009825955724436E+00    5.6456399371224268E+00    4.5504168638452649E+00
H    3.6560029070632973E+00    6.5795738366378620E+00    4.5389736635696414E+00
O   -1.9974058815288389E+00    4.8156882249027850E+00    4.2367732708211054E+00
C    1.3818437488702882E+00    3.3102867784107803E+00    4.2631547969702837E+00
C   -6.2715645073237403E-01    4.4472538746203290E+00    4.2635913965390353E+00
C    5.7051277156588573E-02    3.2828256225045842E+00    3.9947965934555461E+00
H   -4.2827341245964379E-01    2.3911014755862698E+00    3.6738181972871526E+00
O   -7.0481125257614563E+00    4.8003164754248617E+00    4.2329818453826347E+00
C    4.1636492401829432E+00    3.1371685695373337E+00    4.5882772488427745E+00
C    6.3618408020823383E+00    4.4021553630034536E+00    4.3531498383827465E+00
C    5.6720423644821381E+00    3.1540735510251672E+00    4.4639018205043861E+00
H    6.2365078595822174E+00    2.2451177044927344E+00    4.4619381289560609E+00
O   -5.3019671852269825E+00    1.1614354336645523E+01    4.3382079007515513E+00
C    2.0282476122819122E+00    1.9283451691369442E+00    4.3704623440500274E+00
C    1.8831814687369584E+00   -3.8525193164346888E-01    4.3664539572257857E+00
C    1.2752520444772724E+00    8.7460629929096967E-01    4.3420032696844748E+00
H    2.1213134610481224E-01    9.0360777974378759E-01    4.2722334252125389E+00
O   -9.2752681847521645E-01    6.8190984663672563E+00    4.9491753005767753E+00
C    2.0532186711868943E+00    4.4606442563040760E+00    4.6410603448246448E+00
C    5.7215275961121616E-02    5.7549860857658244E+00    4.6615138075109961E+00
C    1.2824109745596417E+00    5.7021131118454669E+00    4.9399950748796311E+00
H    1.5436183887935133E+00    6.7351899243829161E+00    5.4267099209279381E+00
C   -3.2733318875616697E+00    8.3613123850392022E+00    4.5481359750996733E+00
C   -5.5432760429167232E+00    8.4381635785910785E+00    4.1078846329056731E+00
C   -4.4861713455840508E+00    6.3072748384840489E+00    4.3925982535585097E+00
H   -4.6018571242902606E+00    5.2218619675845961E+00    4.4902088824735564E+00
H   -2.3749600268492403E+00    8.8520999153144029E+00    4.6993802440138683E+00
H   -6.4675556061662389E+00    8.9880384339350812E+00    3.9597166843757052E+00
     &END COORD
     &KIND H
       BASIS_SET DZVP-MOLOPT-SR-GTH-q1
       MAGNETIZATION     0.0000000000000000E+00
       POTENTIAL GTH-PBE-q1
       &POTENTIAL
 1
  0.2000000000000000E+00 2 -0.4178900440000000E+01  0.7244633100000000E+00
 0
         # Potential name:  GTH-PBE-Q1  for symbol:  H
         # Potential read from the potential filename: GTH_POTENTIALS
       &END POTENTIAL
     &END KIND
     &KIND C
       BASIS_SET DZVP-MOLOPT-SR-GTH-q4
       MAGNETIZATION     0.0000000000000000E+00
       POTENTIAL GTH-PBE-q4
       &POTENTIAL
 2 2
  0.3384712400000000E+00 2 -0.8803673979999999E+01  0.1339210850000000E+01
 2
  0.3025757500000000E+00 1  0.9622486650000001E+01
  0.2915069400000000E+00 0
         # Potential name:  GTH-PBE-Q4  for symbol:  C
         # Potential read from the potential filename: GTH_POTENTIALS
       &END POTENTIAL
     &END KIND
     &KIND B
       BASIS_SET DZVP-MOLOPT-SR-GTH-q3
       MAGNETIZATION     0.0000000000000000E+00
       POTENTIAL GTH-PBE-q3
       &POTENTIAL
 2 1
  0.4189914500000000E+00 2 -0.5859461710000000E+01  0.9037564300000001E+00
 2
  0.3713204600000000E+00 1  0.6297280180000000E+01
  0.3645630800000000E+00 0
         # Potential name:  GTH-PBE-Q3  for symbol:  B
         # Potential read from the potential filename: GTH_POTENTIALS
       &END POTENTIAL
     &END KIND
     &KIND O
       BASIS_SET DZVP-MOLOPT-SR-GTH-q6
       MAGNETIZATION     0.0000000000000000E+00
       POTENTIAL GTH-PBE-q6
       &POTENTIAL
 2 4
  0.2445543000000000E+00 2 -0.1666721480000000E+02  0.2487311320000000E+01
 2
  0.2209559200000000E+00 1  0.1833745811000000E+02
  0.2113324700000000E+00 0
         # Potential name:  GTH-PBE-Q6  for symbol:  O
         # Potential read from the potential filename: GTH_POTENTIALS
       &END POTENTIAL
     &END KIND
     &TOPOLOGY
       COORD_FILE_NAME aiida.coords.xyz
       COORD_FILE_FORMAT  XYZ
       NUMBER_OF_ATOMS  84
       MULTIPLE_UNIT_CELL  1 1 1
     &END TOPOLOGY
   &END SUBSYS
   &PRINT
     &FORCES  OFF
     &END FORCES
   &END PRINT
 &END FORCE_EVAL
