 &control
    calculation = 'vc-relax'
    !tstress=.true.
    !tprnfor=.true.
    verbosity = 'low'  
    wf_collect = .true.       
    outdir = './' 
    prefix = 'pwscf'
    pseudo_dir='/scratch/ongari/0_LIBRARIES/2_espresso/pbesol.1.0.0/'
    nstep=1000
    etot_conv_thr = 1.0D-4	!default
    forc_conv_thr = 1.0D-3	!default
 /

 &system
    ibrav = 0 
    nat   = 120 
    ntyp  = 5             

    ecutwfc = 50   
    ecutrho = 350  
    occupations = 'smearing'
    smearing = 'gaussian'
    degauss = 0.02  

    nspin = 1

    !input_dft = 'vdw-df2'
/

 &ELECTRONS
    electron_maxstep = 100
    conv_thr =  1.0d-6      	
    mixing_mode = 'local-TF'
    mixing_beta = 0.7    
    diagonalization = 'david'
 /

 &IONS
    ion_dynamics = 'bfgs'
 /
 &CELL
    cell_dynamics = 'bfgs'
    press = 0.0
    cell_factor = 1.2	
    press_conv_thr = 0.5
    cell_dofree = 'all'
 /
 
ATOMIC_SPECIES 
  H    1.008  H.pbesol-kjpaw_psl.1.0.0.UPF		! 	46.Ry	 221.Ry
  C   12.011  C.pbesol-n-kjpaw_psl.1.0.0.UPF		!  	40.Ry	 325.Ry	
  O   15.999  O.pbesol-n-kjpaw_psl.1.0.0.UPF   	 	!	47.Ry	 323.Ry
  S   32.066  S.pbesol-n-kjpaw_psl.1.0.0.UPF  		!	39.Ry	 181.Ry
 Ca   40.078  Ca.pbesol-spn-kjpaw_psl.1.0.0.UPF  	! 	45.Ry	 274.Ry
 
CELL_PARAMETERS angstrom 
11.61930  0.00000  0.00000
 0.00000  5.56670  0.00000
-4.33501  0.00000 22.51772
 
ATOMIC_POSITIONS angstrom 
  C   4.59487   1.43955   5.89964 
  C  -0.95272   4.22290   5.35922 
  C   2.68943   4.12715  16.61808 
  C   8.23701   1.34380  17.15850 
  C   3.34880   1.17513   6.73505 
  C   0.29335   3.95848   4.52381 
  C   3.93550   4.39157  15.78267 
  C   6.99094   1.60822  17.99391 
  C   2.32545   2.10922   6.75757 
  C   1.31670   4.89257   4.50129 
  C   4.95885   3.45748  15.76015 
  C   5.96759   0.67413  18.01643 
  H   2.43525   2.94311   6.31397 
  H   1.20690   0.15976   4.94489 
  H   4.84905   2.62359  16.20375 
  H   6.07740   5.40694  17.57283 
  C   1.13542   1.82699   7.42860 
  C   2.50672   4.61034   3.83026 
  C   6.14887   3.73971  15.08912 
  C   4.77757   0.95636  18.68745 
  H   0.42332   2.45658   7.43985 
  H   3.21883   5.23993   3.81901 
  H   6.86098   3.11012  15.07786 
  H   4.06546   0.32677  18.69871 
  C   1.01087   0.61011   8.08161 
  C   2.63128   3.39346   3.17725 
  C   6.27342   4.95659  14.43611 
  C   4.65302   2.17324  19.34047 
  C   2.05054   5.23993   8.11313 
  C   1.59161   2.45658   3.14573 
  C   5.23376   0.32677  14.40458 
  C   5.69268   3.11012  19.37199 
  H   1.95763   4.42998   8.60177 
  H   1.68452   1.64663   2.65709 
  H   5.32666   1.13672  13.91595 
  H   5.59978   3.92007  19.86063 
  C   3.22253   5.51771   7.41508 
  C   0.41962   2.73436   3.84377 
  C   4.06177   0.04899  15.10263 
  C   6.86467   2.83234  18.67394 
  H   3.93085   4.88589   7.39932 
  H  -0.28871   2.10254   3.85954 
  H   3.35344   0.68081  15.11840 
  H   7.57300   3.46416  18.65818 
  C  -0.30704   0.62291  10.58783 
  C   3.94919   3.40626   0.67103 
  C   7.59134   4.94379  11.92989 
  C   3.33510   2.16044  21.84669 
  C  -0.73724   1.85928  11.03593 
  C   4.37939   4.64263   0.22293 
  C   8.02154   3.70742  11.48178 
  C   2.90490   0.92407  22.29479 
  H  -1.07408   2.50613  10.42570 
  H   4.71622   5.28948   0.83316 
  H   8.35837   3.06057  12.09201 
  H   2.56807   0.27722  21.68456 
  C  -0.66574   2.13594  12.40276 
  C  -0.02712   4.91929  21.37382 
  C   7.95003   3.43076  10.11496 
  C   7.31141   0.64741   1.14390 
  H  -0.94196   2.98431  12.72701 
  H   0.24910   0.20096  21.04956 
  H   8.22625   2.58239   9.79070 
  H   7.03519   5.36574   1.46816 
  C  -0.19196   1.17680  13.28545 
  C  -0.50090   3.96015  20.49112 
  C   7.47626   4.38990   9.23226 
  C   7.78519   1.60655   2.02659 
  C   0.28237   5.51382  12.81934 
  C  -0.97523   2.73047  20.95724 
  C   7.00192   0.05288   9.69838 
  C   8.25952   2.83623   1.56048 
  H   0.63982   4.87587  13.42506 
  H  -1.33268   2.09252  20.35151 
  H   6.64447   0.69083   9.09265 
  H   8.61698   3.47418   2.16620 
  C   0.22859   5.23158  11.45702 
  C  -0.92145   2.44823  22.31956 
  C   7.05570   0.33512  11.06070 
  C   8.20575   3.11847   0.19816 
  H   0.55113   4.40326  11.12150 
  H   3.09101   1.61991   0.13736 
  H   6.73316   1.16344  11.39622 
  H   4.19328   3.94679  22.38036 
  C  -0.19907   1.46070  14.76487 
  C  -0.49379   4.24405  19.01171 
  C   7.48337   4.10600   7.75285 
  C   7.77808   1.32265   3.50601 
  O   4.86040   2.64697   5.67919 
  O  10.40105   5.43032   5.57967 
  O   2.42390   2.91973  16.83852 
  O  -3.11676   0.13638  16.93805 
  O   5.22835   0.44979   5.48802 
  O  10.03310   3.23314   5.77084 
  O   2.05594   5.11691  17.02970 
  O  -2.74880   2.33356  16.74688 
  O  -1.54658   1.08996   8.35948 
  O   5.18873   3.87331   2.89938 
  O   8.83088   4.47674  14.15824 
  O   2.09556   1.69339  19.61834 
  O  -0.68676   4.33980   8.79407 
  O   4.32891   1.55645   2.46479 
  O   7.97106   1.22690  13.72365 
  O   2.95538   4.01025  20.05293 
  O  -0.16101   2.65420  15.14654 
  O  -0.53185   5.43755  18.63003 
  O   7.44530   2.91250   7.37118 
  O   7.81615   0.12915   3.88768 
  O  -0.19841   0.47317  15.55209 
  O  -0.49445   3.25652  18.22449 
  O   7.48271   5.09353   6.96563 
  O   7.77874   2.31018   4.29323 
  S  -0.50914   0.20263   8.87513 
  S   4.15129   2.98598   2.38373 
  S   7.79343   5.36407  13.64259 
  S   3.13301   2.58072  20.13399 
 Ca   6.44504   4.13778   4.98024 
 Ca   8.81640   1.35443   6.27862 
 Ca   0.83925   1.42892  17.53747 
 Ca  -1.53211   4.21227  16.23910 

K_POINTS automatic
1 2 1 0 0 0


