ibrav = 0 
nat   = 120 
ntyp  = 5 
 
ATOMIC_SPECIES 
  H    1.008   H.pbe-kjpaw_psl.1.0.0.UPF   ! 	 46.Ry	 221.Ry
  C   12.011   C.pbe-n-kjpaw_psl.1.0.0.UPF ! 	 40.Ry	 326.Ry
  O   15.999   O.pbe-n-kjpaw_psl.1.0.0.UPF ! 	 47.Ry	 323.Ry
  S   32.066   S.pbe-n-kjpaw_psl.1.0.0.UPF ! 	 39.Ry	 181.Ry
 Ca   40.078   Ca.pbe-spn-kjpaw_psl.1.0.0.UPF ! 	 45.Ry	 274.Ry
 
CELL_PARAMETERS angstrom 
12.04098 -0.00097 -0.00308
-0.00053  4.89496  0.00001
-4.50741  0.00037 23.03496
 
ATOMIC_POSITIONS angstrom 
  C   4.62824   1.29717   6.12913 
  C  -0.86069   3.74430   5.38616 
  C   2.90481   3.59718  16.90276 
  C   8.39373   1.15006  17.64573 
  C   3.44181   0.97313   6.98121 
  C   0.32551   3.42057   4.53360 
  C   4.09125   3.92123  16.05068 
  C   7.20753   1.47378  18.49829 
  C   2.31701   1.81432   6.92156 
  C   1.44990   4.26161   4.59384 
  C   5.21604   3.08004  16.11033 
  C   6.08314   0.63275  18.43805 
  H   2.33623   2.67539   6.25484 
  H   1.43073   0.22773   5.26052 
  H   5.19682   2.21896  16.77705 
  H   6.10233   4.66662  17.77137 
  C   1.15337   1.45998   7.59868 
  C   2.61440   3.90749   3.91740 
  C   6.37967   3.43438  15.43321 
  C   4.91865   0.98686  19.11448 
  H   0.27684   2.11031   7.58565 
  H   3.49047   4.55774   3.93076 
  H   7.25621   2.78404  15.44623 
  H   4.04257   0.33662  19.10113 
  C   1.13464   0.30054   8.35148 
  C   2.63348   2.74784   3.16443 
  C   6.39840   4.59382  14.68041 
  C   4.89958   2.14652  19.86746 
  C   2.24322   4.33571   8.42275 
  C   1.52477   1.88807   3.09306 
  C   5.28984   0.55865  14.60913 
  C   6.00828   3.00629  19.93883 
  H   2.21590   3.43070   9.03184 
  H   1.55265   0.98265   2.48433 
  H   5.31715   1.46365  14.00005 
  H   5.98041   3.91170  20.54756 
  C   3.39371   4.69014   7.71364 
  C   0.37392   2.24227   3.80143 
  C   4.13934   0.20422  15.31824 
  C   7.15912   2.65209  19.23045 
  H   4.24229   4.00246   7.64483 
  H  -0.47453   1.55457   3.87001 
  H   3.29075   0.89189  15.38706 
  H   8.00757   3.33979  19.16188 
  C  -0.18862   0.29180  10.93261 
  C   3.95653   2.73904   0.58327 
  C   7.72168   4.60256  12.09928 
  C   3.57652   2.15531  22.44862 
  C  -0.80885   1.45441  11.35001 
  C   4.57565   3.90194   0.16639 
  C   8.34190   3.43994  11.68187 
  C   2.95740   0.99242  22.86550 
  H  -1.25772   2.12328  10.61125 
  H   5.02514   4.57058   0.90406 
  H   8.79077   2.77107  12.42063 
  H   2.50790   0.32377  22.12783 
  C  -0.77456   1.80759  12.69042 
  C   0.03333   4.25575  21.85963 
  C   8.30761   3.08677  10.34146 
  C   7.49972   0.63860   1.17226 
  H  -1.28749   2.70301  13.04311 
  H   0.54648   0.25594  21.50738 
  H   8.82053   2.19134   9.98877 
  H   6.98657   4.63841   1.52451 
  C  -0.14899   0.96607  13.62309 
  C  -0.59260   3.41380  20.92797 
  C   7.68204   3.92828   9.40879 
  C   8.12565   1.48056   2.10391 
  C   0.49549   4.70855  13.18940 
  C  -1.23692   2.26143  21.36166 
  C   7.03755   0.18580   9.84249 
  C   8.76997   2.63293   1.67023 
  H   0.94727   4.03833  13.92400 
  H  -1.68844   1.59063  20.62772 
  H   6.58577   0.85602   9.10788 
  H   9.22149   3.30372   2.40416 
  C   0.49005   4.35030  11.83299 
  C  -1.23110   1.90309  22.71870 
  C   7.04300   0.54406  11.19890 
  C   8.76416   2.99127   0.31319 
  H   1.03943   3.47011  11.48822 
  H   2.72719   1.02285   0.02836 
  H   6.49362   1.42425  11.54367 
  H   4.80586   3.87150  23.00353 
  C  -0.19315   1.44264  15.04835 
  C  -0.55059   3.88999  19.50297 
  C   7.72621   3.45172   7.98354 
  C   8.08364   1.00436   3.52892 
  O   4.59721   2.41314   5.53088 
  O  11.21117   4.85920   5.98110 
  O   2.93585   2.48122  17.50100 
  O  -3.67813   0.03516  17.05079 
  O   5.55894   0.44184   6.02923 
  O  10.24890   2.88811   5.48244 
  O   1.97410   4.45251  17.00266 
  O  -2.71585   2.00625  17.54945 
  O  -1.51444   0.54868   8.68731 
  O   5.28252   2.99631   2.82831 
  O   9.04749   4.34567  14.34458 
  O   2.25052   1.89804  20.20358 
  O  -0.32724   3.27774   9.21241 
  O   4.09531   0.83028   2.30347 
  O   7.86030   1.61662  13.81948 
  O   3.43773   4.06408  20.72842 
  O  -0.11019   2.68610  15.18609 
  O  -0.64148   5.13254  19.36277 
  O   7.64324   2.20826   7.84580 
  O   8.17453  -0.23819   3.66911 
  O  -0.31239   0.64863  16.04518 
  O  -0.42562   3.09535  18.50617 
  O   7.84545   4.24573   6.98671 
  O   7.95866   1.79901   4.52572 
  S  -0.34492  -0.15975   9.22048 
  S   4.11275   2.28808   2.29521 
  S   7.87797   5.05411  13.81141 
  S   3.42031   2.60627  20.73668 
 Ca   6.55384   3.55811   5.00456 
 Ca   9.25483   1.10880   6.50686 
 Ca   0.97920   1.33624  18.02732 
 Ca  -1.72178   3.78555  16.52503 
 
K_POINTS gamma 
