 # Version information for this restart file 
 # current date 2017-07-19 21:02:11.097
 # current working dir /scratch/ongari/b_cp2k_HKUST1_good/3_PBEsol_CELLopt/constrained_angles
 # Program compiled at                             Fri Mar 31 10:52:13 CEST 2017
 # Program compiled on                                                   fadmin1
 # Program compiled for                                    x86_E5v4_Mellanox-gcc
 # Source code revision number                                         svn:16458
 &GLOBAL
   EXTENDED_FFT_LENGTHS  F
   PRINT_LEVEL  MEDIUM
   PROJECT_NAME cp2k
   RUN_TYPE  CELL_OPT
 &END GLOBAL
 &MOTION
   &CELL_OPT
     OPTIMIZER  BFGS
     MAX_ITER  500
     MAX_DR     1.8897261328856430E-03
     MAX_FORCE     4.4999999999999999E-04
     RMS_DR     9.4486306644282151E-04
     RMS_FORCE     2.9999999999999997E-04
     STEP_START_VAL  8
     TYPE  DIRECT_CELL_OPT
     EXTERNAL_PRESSURE     0.0000000000000000E+00
     KEEP_ANGLES  T
     KEEP_SYMMETRY  F
     PRESSURE_TOLERANCE     1.0000000000000000E+02
     &BFGS
     &END BFGS
   &END CELL_OPT
   &PRINT
     &TRAJECTORY  SILENT
       FORMAT  DCD_ALIGNED_CELL
       &EACH
         MD  1
         GEO_OPT  1
         CELL_OPT  1
       &END EACH
     &END TRAJECTORY
     &CELL  OFF
     &END CELL
     &VELOCITIES  OFF
     &END VELOCITIES
     &FORCES  OFF
     &END FORCES
     &RESTART  SILENT
       BACKUP_COPIES  3
       &EACH
         MD  1
         GEO_OPT  1
         CELL_OPT  1
       &END EACH
     &END RESTART
     &RESTART_HISTORY  SILENT
       &EACH
         MD  1000
         GEO_OPT  1000
         CELL_OPT  1000
       &END EACH
     &END RESTART_HISTORY
   &END PRINT
 &END MOTION
 &FORCE_EVAL
   METHOD  QS
   STRESS_TENSOR  ANALYTICAL
   &DFT
     BASIS_SET_FILE_NAME /scratch/ongari/0_LIBRARIES/0_cp2k/BASIS_MOLOPT
     BASIS_SET_FILE_NAME /scratch/ongari/0_LIBRARIES/0_cp2k/BASIS_MOLOPT_UCL
     POTENTIAL_FILE_NAME /scratch/ongari/0_LIBRARIES/0_cp2k/GTH_POTENTIALS
     UKS  T
     MULTIPLICITY  13
     CHARGE  0
     &SCF
       MAX_SCF  50
       EPS_SCF     9.9999999999999995E-08
       SCF_GUESS  RESTART
       &OT  T
         MINIMIZER  DIIS
         PRECONDITIONER  FULL_KINETIC
       &END OT
       &OUTER_SCF  T
         EPS_SCF     9.9999999999999995E-08
         MAX_SCF  15
       &END OUTER_SCF
     &END SCF
     &QS
       METHOD  GPW
     &END QS
     &MGRID
       NGRIDS  4
       CUTOFF     7.0000000000000000E+02
       REL_CUTOFF     5.0000000000000000E+01
     &END MGRID
     &XC
       DENSITY_CUTOFF     1.0000000000000000E-10
       GRADIENT_CUTOFF     1.0000000000000000E-10
       TAU_CUTOFF     1.0000000000000000E-10
       &XC_FUNCTIONAL  NO_SHORTCUT
         &PBE  T
           PARAMETRIZATION  PBESOL
         &END PBE
       &END XC_FUNCTIONAL
     &END XC
     &POISSON
       PERIODIC  XYZ
     &END POISSON
     &PRINT
       &MO_CUBES  SILENT
         WRITE_CUBE  F
         NLUMO  1
         NHOMO  1
       &END MO_CUBES
       &E_DENSITY_CUBE  OFF
       &END E_DENSITY_CUBE
     &END PRINT
   &END DFT
   &SUBSYS
     &CELL
       A     1.8681691526077131E+01    0.0000000000000000E+00    0.0000000000000000E+00
       B     9.3406843060758611E+00    1.6178768279842849E+01    0.0000000000000000E+00
       C     9.3407821992757132E+00    5.3929708504074272E+00    1.5253412096282371E+01
       PERIODIC  XYZ
       MULTIPLE_UNIT_CELL  1 1 1
       SYMMETRY  NONE
     &END CELL
     &COORD
O    2.2254154091703960E+01    3.6420864663214174E+00    9.3591766047390443E+00
O    1.3142447513784308E+01    1.6794277753932548E+01    7.4998817335801116E+00
O    2.4220557906235371E+01    1.2669067262793284E+01    1.3333711550012580E+01
O    1.5109118106906054E+01    1.0037968538614164E+01    3.1390456525160204E-01
O    1.9820156893117129E+01    1.4253653386878952E+01    3.1406452549903385E-01
O    1.7543058312620836E+01    5.0472919614875700E+00    1.3333707140931072E+01
O    2.6654468826525633E+01    1.2578568190973684E+01    7.4998341715975174E+00
O    1.0708552133637578E+01    1.1263912852838684E+01    9.3592160135271136E+00
O    1.4281114906464001E+01    1.4641207287184084E+01    1.3333713295211570E+01
O    2.1115528758133731E+01    8.0658989149746336E+00    3.1399218202807949E-01
O    2.3081974436119854E+01    1.7451596415275308E+01    9.3591522687022000E+00
O    1.6247724078006630E+01    2.9846398384456041E+00    7.4998879448362947E+00
O    1.6247586789291777E+01    1.8587054615883190E+01    7.7535187403410211E+00
O    2.3082083053650109E+01    4.1201002254006909E+00    5.8942235143956374E+00
O    2.1115468203541070E+01    1.3505845075667057E+01    1.4939499098113547E+01
O    1.4281148560162281E+01    6.9305424992934732E+00    1.9197090633512364E+00
O    1.3142659916403856E+01    4.7775172898854503E+00    7.7536105949168412E+00
O    2.2253993954881999E+01    1.7929716599613599E+01    5.8942049973829533E+00
O    1.5109044805924929E+01    1.1533738167147494E+01    1.4939352509797427E+01
O    2.4220661067172330E+01    8.9026183109070587E+00    1.9196835198410509E+00
O    2.6654625867284178E+01    8.9930949028773011E+00    7.7534994914642095E+00
O    1.0708666985122722E+01    1.0307887687661859E+01    5.8942605657382270E+00
O    1.9820171871585654E+01    7.3181090488041800E+00    1.4939393937250767E+01
O    1.7542922220185091E+01    1.6524353300294820E+01    1.9196976171742623E+00
O    1.5108997899773964E+01    1.7929641657672889E+01    5.8942221706968621E+00
O    2.4220704239552198E+01    4.7774612219480783E+00    7.7535191655549225E+00
O    1.3142600672357725E+01    8.9026694831556572E+00    1.9197084196106526E+00
O    2.2254050166919352E+01    1.1533746670836171E+01    1.4939483691087231E+01
O    1.7542990380723481E+01    7.3180715278943840E+00    1.4939326436627804E+01
O    1.9820102519381663E+01    1.6524423124943475E+01    1.9196965701163136E+00
O    1.0708680328828212E+01    8.9931634431235992E+00    7.7535794694539746E+00
O    2.6654612003850040E+01    1.0307816492256421E+01    5.8941898488187432E+00
O    2.3082045465589204E+01    6.9305317817113137E+00    1.9196887892393808E+00
O    1.6247634006577666E+01    1.3505834826967774E+01    1.4939401579563032E+01
O    1.4281211565276580E+01    4.1201490224001036E+00    5.8942747488506129E+00
O    2.1115423150348889E+01    1.8587072317995727E+01    7.7535256657535001E+00
O    2.1115565685493149E+01    2.9846790208725262E+00    7.4998731788000823E+00
O    1.4281068661585817E+01    1.7451640017884642E+01    9.3591809674146766E+00
O    1.6247694122349191E+01    8.0658662742621630E+00    3.1394743003828651E-01
O    2.3081971542969214E+01    1.4641173125147247E+01    1.3333701413503602E+01
O    2.4220504110412751E+01    1.6794216115609963E+01    7.4998072179339470E+00
O    1.5109155650295515E+01    3.6420221610324020E+00    9.3591977658990562E+00
O    2.2254117808982560E+01    1.0037999513729002E+01    3.1404393482520254E-01
O    1.3142503107944410E+01    1.2669120759462727E+01    1.3333719768552596E+01
O    1.0708510952258310E+01    1.2578650270240802E+01    7.4999154259866447E+00
O    2.6654503992385131E+01    1.1263854624060727E+01    9.3591613885113620E+00
O    1.7542979119814557E+01    1.4253614640928195E+01    3.1400541755705935E-01
O    1.9820236708611173E+01    5.0473676796127176E+00    1.3333704081524026E+01
C    1.9893911552075842E+01    4.2560194738045789E+00    1.0677667789134722E+01
C    1.2420370354176182E+01    1.4400748754021320E+01    8.6980735173911921E+00
C    2.4942670344812779E+01    1.3000898354470275E+01    1.0677668128346310E+01
C    1.7469323644565154E+01    1.1485713444446326E+01    4.5333248667287152E-01
C    1.9893853623430033E+01    1.1485732357451644E+01    4.5331898329116216E-01
C    1.7469380989611174E+01    4.2560013781405210E+00    1.0677675862962554E+01
C    2.4942692105330128E+01    1.4400708837708466E+01    8.6980557304129267E+00
C    1.2420421516163721E+01    1.3000928246680870E+01    1.0677678437532339E+01
C    1.3632641009038537E+01    1.5100653061305799E+01    1.0677682280288796E+01
C    1.8681611412641143E+01    9.3860181344521720E+00    4.5333287984077020E-01
C    2.3730422709279175E+01    1.5100613692840870E+01    1.0677669074946049E+01
C    1.8681653096002506E+01    3.5561056912041762E+00    8.6980526569733012E+00
C    1.8681499260313128E+01    1.8015586666548973E+01    6.5553591003530141E+00
C    2.3730483779008033E+01    6.4711046545178057E+00    4.5757295889548626E+00
C    1.8681557331936883E+01    1.2185705326085163E+01    1.4800043806117001E+01
C    1.3632748784385171E+01    6.4711285932075633E+00    4.5757559928658136E+00
C    1.2420476887563373E+01    7.1710299628561947E+00    6.5553680186714489E+00
C    1.9893776071038666E+01    1.7315694612055303E+01    4.5757380872883697E+00
C    1.7469303416173769E+01    1.0085997095966379E+01    1.4800055813975261E+01
C    2.4942732687098779E+01    8.5708131786451194E+00    4.5757255174152753E+00
C    2.4942751248942368E+01    7.1710074729990136E+00    6.5553430530168111E+00
C    1.2420500407144939E+01    8.5708429858868573E+00    4.5757572712031056E+00
C    1.9893832189015704E+01    1.0086003987931969E+01    1.4800042080693448E+01
C    1.7469245312806606E+01    1.7315674270302495E+01    4.5757388271260373E+00
C    2.1184334178187157E+01    3.4564150827497673E+00    8.6854582722008864E+00
C    1.3585311483553829E+01    1.6618003219553856E+01    8.6854929527967837E+00
C    2.3777674055167303E+01    1.3728098746810948E+01    1.2772293573848621E+01
C    1.6178934720027542E+01    9.3408946936435395E+00    3.6349098110008854E-01
C    1.8681575159443117E+01    1.3675657614396147E+01    3.6346996395711367E-01
C    1.8681650081849984E+01    4.9012798669109729E+00    1.2772307415953538E+01
C    2.6280413574612503E+01    1.2283206757501052E+01    8.6854681421774789E+00
C    1.1082645838523062E+01    1.2283252213888868E+01    8.6855120546579681E+00
C    1.3585380634346318E+01    1.3728155894240306E+01    1.2772306958554175E+01
C    2.1184287417348628E+01    9.3409292045127561E+00    3.6346773735300969E-01
C    2.3777690331683491E+01    1.6617942820772480E+01    8.6854414136856910E+00
C    1.6178981386108287E+01    3.4563014423365970E+00    8.6855046269176732E+00
C    1.6178820096131858E+01    1.8115298681508083E+01    6.5679413662821817E+00
C    2.3777823288239933E+01    4.9537477370786958E+00    6.5679159120888340E+00
C    2.1184232065641140E+01    1.2230819647233583E+01    1.4889902467192007E+01
C    1.3585533997928637E+01    7.8436673108878336E+00    2.4811427749089123E+00
C    1.3585425100089832E+01    4.9537690115115884E+00    6.5679546811264879E+00
C    2.1184170921450068E+01    1.8115406840128639E+01    6.5679105369797393E+00
C    1.6178878182639750E+01    1.2230804000772826E+01    1.4889924818184973E+01
C    2.3777774089582358E+01    7.8435869080438971E+00    2.4810959164970008E+00
C    2.6280504769883741E+01    9.2884833647000704E+00    6.5678959818583200E+00
C    1.1082732841492357E+01    9.2885190767175114E+00    6.5679426492414397E+00
C    1.8681574447170469E+01    7.8960628845647687E+00    1.4889917299292724E+01
C    1.8681509758018933E+01    1.6670432613012586E+01    2.4810955630548710E+00
C    1.9893437579439794E+01    3.7878882675923324E+00    9.3587568826732834E+00
C    1.3227013402283024E+01    1.5334284536102947E+01    9.3587630662003249E+00
C    2.4136075808930073E+01    1.3935016619495579E+01    1.1337596453739719E+01
C    1.7469820751864994E+01    1.0086187792099334E+01    4.5161478173607317E-01
C    1.8681583025250674E+01    1.2185070362713933E+01    4.5167578719247214E-01
C    1.8681647301898614E+01    4.4875649279960808E+00    1.1337572701683628E+01
C    2.5347835876944693E+01    1.3235369087041748E+01    9.3587520734782110E+00
C    1.2015237407275938E+01    1.3235408810332400E+01    9.3587714719998747E+00
C    1.3227037656030090E+01    1.3935034060091377E+01    1.1337594531447902E+01
C    1.9893391530282614E+01    1.0086206426429356E+01    4.5166570309055043E-01
C    2.4136068552815747E+01    1.5334257993091455E+01    9.3587532230502912E+00
C    1.7469868471956687E+01    3.7879115107494132E+00    9.3587504983477405E+00
C    1.7469716869155892E+01    1.7783814703465755E+01    5.8946465963927333E+00
C    2.4136116426185360E+01    6.2374692704149446E+00    5.8946469370124692E+00
C    1.9893344838682118E+01    1.1485529498129875E+01    1.4801773161138307E+01
C    1.3227075662990956E+01    7.6367148244628282E+00    3.9158203651194228E+00
C    1.3227146295963474E+01    6.2375065858453862E+00    5.8946892585053057E+00
C    1.9893286062858884E+01    1.7783794507781998E+01    5.8946605373885088E+00
C    1.7469772747523731E+01    1.1485523174308423E+01    1.4801710034472265E+01
C    2.4136107126572611E+01    7.6367136490538066E+00    3.9158120723792651E+00
C    2.5347899545889110E+01    8.3363386323600182E+00    5.8946390517743890E+00
C    1.2015347738951572E+01    8.3363788267870103E+00    5.8946782987168813E+00
C    1.8681569484758388E+01    9.3866505811020637E+00    1.4801702094007533E+01
C    1.8681511926519466E+01    1.7084134184378318E+01    3.9158357118168903E+00
H    2.0840648851448265E+01    4.4160342661730265E+00    1.1200852615640358E+01
H    1.2085566014066139E+01    1.4594043729456271E+01    7.6752428037454834E+00
H    2.5277443085925974E+01    1.2100982979291302E+01    1.1200851862618482E+01
H    1.6522574125794005E+01    1.2032297964505766E+01    4.2980781624632569E-01
H    2.0840589251126190E+01    1.2032341604689126E+01    4.2980361934109651E-01
H    1.6522635227733449E+01    4.4160307791659168E+00    1.1200844427965974E+01
H    2.5277483914548245E+01    1.4593992724511889E+01    7.6752196605192875E+00
H    1.2085646645130153E+01    1.2101011558060517E+01    1.1200851581895870E+01
H    1.4244569782368442E+01    1.5840556953455415E+01    1.1200870571848331E+01
H    1.8681612366223924E+01    8.2928176501688924E+00    4.2980776677280214E-01
H    2.3118503859615004E+01    1.5840522596647046E+01    1.1200862728685093E+01
H    1.8681650364591306E+01    3.1695165082642736E+00    7.6752188509755994E+00
H    1.8681502100461962E+01    1.8402185835930712E+01    7.5781885334567338E+00
H    2.3118554015577725E+01    5.7311991181069235E+00    4.0525426071930370E+00
H    1.8681562890119451E+01    1.3278905375043191E+01    1.4823576196112324E+01
H    1.4244677974548452E+01    5.7312266438693085E+00    4.0525665081431255E+00
H    1.2085707604179634E+01    6.9777570674487359E+00    7.5782147899340275E+00
H    2.0840522994891884E+01    1.7155674497378879E+01    4.0525667056533008E+00
H    1.6522564404486882E+01    9.5393923096171900E+00    1.4823575370549584E+01
H    2.5277527530405926E+01    9.4707179928828467E+00    4.0525410483353506E+00
H    2.5277551689613464E+01    6.9777185996059128E+00    7.5781755242638527E+00
H    1.2085708171166996E+01    9.4707478728863546E+00    4.0525682083224073E+00
H    2.0840577645516284E+01    9.5394170148243838E+00    1.4823575191874996E+01
H    1.6522506042802107E+01    1.7155666371788961E+01    4.0525497993620823E+00
Cu1    3.3295789048958838E+01    1.9223415770148012E+01    8.6114419772099318E+00
Cu2    1.4614209800915880E+01    7.0448968642180327E+00    1.2181081558555280E-05
Cu1    1.9887683165758151E+01    5.3929791506271174E+00    1.5253410680101137E+01
Cu2    2.8022411235129990E+01    1.1482178862899925E+01    6.6419614609358479E+00
Cu1    2.3955061101748921E+01    9.1338631797646137E+00   -1.0912367342291801E-06
Cu2    2.3954927852331000E+01    1.8527091304183600E+01    6.6419538750574487E+00
Cu1    4.0673668103294691E+00    2.3483211636286176E+00    6.6419519413827848E+00
Cu2    2.2748951581027789E+01    1.4526825828410542E+01    1.5253408251186947E+01
Cu1    1.7475470843645144E+01    1.6178745517908375E+01   -9.6835322754066817E-06
Cu2    9.3407404776638856E+00    1.0089552131038980E+01    8.6114487277355369E+00
Cu1    1.3408104699261626E+01    1.2437873471441470E+01    1.5253403384132778E+01
Cu2    1.3408219369596608E+01    3.0446375446152527E+00    8.6114543729217665E+00
       SCALED  F
     &END COORD
     &KIND H
       BASIS_SET DZVP-MOLOPT-GTH
       POTENTIAL GTH-PBE
       &POTENTIAL
 1
  0.2000000000000000E+00 2 -0.4178900440000000E+01  0.7244633100000000E+00
 0
         # Potential name:  GTH-PBE  for symbol:  H
         # Potential read from the potential filename: /scratch/ongari/0_LIBRARIES/0_cp2k/GTH_POTENTIALS
       &END POTENTIAL
     &END KIND
     &KIND O
       BASIS_SET DZVP-MOLOPT-GTH
       POTENTIAL GTH-PBE
       &POTENTIAL
 2 4
  0.2445543000000000E+00 2 -0.1666721480000000E+02  0.2487311320000000E+01
 2
  0.2209559200000000E+00 1  0.1833745811000000E+02
  0.2113324700000000E+00 0
         # Potential name:  GTH-PBE  for symbol:  O
         # Potential read from the potential filename: /scratch/ongari/0_LIBRARIES/0_cp2k/GTH_POTENTIALS
       &END POTENTIAL
     &END KIND
     &KIND C
       BASIS_SET DZVP-MOLOPT-GTH
       POTENTIAL GTH-PBE-q4
       &POTENTIAL
 2 2
  0.3384712400000000E+00 2 -0.8803673979999999E+01  0.1339210850000000E+01
 2
  0.3025757500000000E+00 1  0.9622486650000001E+01
  0.2915069400000000E+00 0
         # Potential name:  GTH-PBE-Q4  for symbol:  C
         # Potential read from the potential filename: /scratch/ongari/0_LIBRARIES/0_cp2k/GTH_POTENTIALS
       &END POTENTIAL
     &END KIND
     &KIND Cu1
       BASIS_SET TZVP-MOLOPT-SR-GTH
       POTENTIAL GTH-PBE
       &POTENTIAL
 1 0 10
  0.5300000000000000E+00 0
 3
  0.4313550500000000E+00 3  0.9693805070000000E+01 -0.6470165350000000E+01  0.1935952150000000E+01
  0.1150177396000000E+02 -0.4998606960000000E+01
  0.3967521270000000E+01
  0.5613915500000000E+00 2  0.2545473300000000E+01 -0.7846357300000000E+00
  0.9283935200000000E+00
  0.2645548500000000E+00 1 -0.1282861406000000E+02
         # Potential name:  GTH-PBE  for symbol:  CU
         # Potential read from the potential filename: /scratch/ongari/0_LIBRARIES/0_cp2k/GTH_POTENTIALS
       &END POTENTIAL
       &BS  T
         &ALPHA
           NEL  -2 1
           L  0 2
           N  4 3
         &END ALPHA
         &BETA
           NEL  -2 -1
           L  0 2
           N  4 3
         &END BETA
       &END BS
     &END KIND
     &KIND Cu2
       BASIS_SET TZVP-MOLOPT-SR-GTH
       POTENTIAL GTH-PBE
       &POTENTIAL
 1 0 10
  0.5300000000000000E+00 0
 3
  0.4313550500000000E+00 3  0.9693805070000000E+01 -0.6470165350000000E+01  0.1935952150000000E+01
  0.1150177396000000E+02 -0.4998606960000000E+01
  0.3967521270000000E+01
  0.5613915500000000E+00 2  0.2545473300000000E+01 -0.7846357300000000E+00
  0.9283935200000000E+00
  0.2645548500000000E+00 1 -0.1282861406000000E+02
         # Potential name:  GTH-PBE  for symbol:  CU
         # Potential read from the potential filename: /scratch/ongari/0_LIBRARIES/0_cp2k/GTH_POTENTIALS
       &END POTENTIAL
       &BS  T
         &ALPHA
           NEL  -2 1
           L  0 2
           N  4 3
         &END ALPHA
         &BETA
           NEL  -2 -1
           L  0 2
           N  4 3
         &END BETA
       &END BS
     &END KIND
     &TOPOLOGY
       NUMBER_OF_ATOMS  156
       MULTIPLE_UNIT_CELL  1 1 1
     &END TOPOLOGY
   &END SUBSYS
 &END FORCE_EVAL
