 # Version information for this restart file 
 # current date 2017-03-21 05:42:31.211
 # current working dir /scratch/ongari/u_CP2K_proj12/0_bulk
 # Program compiled at                             Wed Aug 24 15:52:15 CEST 2016
 # Program compiled on                                                      b406
 # Program compiled for                                     x86_E5v1_IntelIB-gcc
 # Source code revision number                                         svn:16458
 &GLOBAL
   PRINT_LEVEL  MEDIUM
   PROJECT_NAME MIL-125_bulk
   RUN_TYPE  CELL_OPT
 &END GLOBAL
 &MOTION
   &GEO_OPT
     OPTIMIZER  BFGS
     MAX_ITER  200
     MAX_DR     1.8897261328856430E-03
     &BFGS
     &END BFGS
   &END GEO_OPT
   &CELL_OPT
     OPTIMIZER  BFGS
     MAX_ITER  500
     MAX_DR     1.8897261328856430E-03
     MAX_FORCE     4.4999999999999999E-04
     RMS_DR     9.4486306644282151E-04
     RMS_FORCE     2.9999999999999997E-04
     STEP_START_VAL  6
     TYPE  DIRECT_CELL_OPT
     EXTERNAL_PRESSURE     0.0000000000000000E+00
     KEEP_ANGLES  T
     KEEP_SYMMETRY  T
     PRESSURE_TOLERANCE     1.0000000000000000E+02
     &BFGS
     &END BFGS
   &END CELL_OPT
   &PRINT
     &TRAJECTORY  SILENT
       FORMAT  DCD_ALIGNED_CELL
       &EACH
         MD  1
         GEO_OPT  1
         CELL_OPT  1
       &END EACH
     &END TRAJECTORY
     &CELL  OFF
     &END CELL
     &VELOCITIES  OFF
     &END VELOCITIES
     &FORCES  OFF
     &END FORCES
     &RESTART  SILENT
       BACKUP_COPIES  3
       &EACH
         MD  1
         GEO_OPT  1
         CELL_OPT  1
       &END EACH
     &END RESTART
     &RESTART_HISTORY  SILENT
       &EACH
         MD  1000
         GEO_OPT  1000
         CELL_OPT  1000
       &END EACH
     &END RESTART_HISTORY
   &END PRINT
 &END MOTION
 &FORCE_EVAL
   METHOD  QS
   STRESS_TENSOR  ANALYTICAL
   &DFT
     BASIS_SET_FILE_NAME ./BASIS_RI_cc-TZ
     BASIS_SET_FILE_NAME ./BASIS_SET
     BASIS_SET_FILE_NAME ./GTH_BASIS_SETS
     POTENTIAL_FILE_NAME ./GTH_POTENTIALS
     &SCF
       MAX_SCF  500
       EPS_SCF     9.9999999999999995E-08
       SCF_GUESS  ATOMIC
       &OT  T
         MINIMIZER  DIIS
         PRECONDITIONER  FULL_KINETIC
       &END OT
     &END SCF
     &QS
       EPS_DEFAULT     9.9999999999999998E-13
       EPS_PGF_ORB     9.9999999999999995E-21
       METHOD  GPW
     &END QS
     &MGRID
       CUTOFF     3.0000000000000000E+02
       REL_CUTOFF     5.0000000000000000E+01
     &END MGRID
     &XC
       DENSITY_CUTOFF     1.0000000000000000E-10
       GRADIENT_CUTOFF     1.0000000000000000E-10
       TAU_CUTOFF     1.0000000000000000E-10
       &XC_FUNCTIONAL  NO_SHORTCUT
         &PBE  T
           PARAMETRIZATION  ORIG
         &END PBE
       &END XC_FUNCTIONAL
       &VDW_POTENTIAL
         POTENTIAL_TYPE  PAIR_POTENTIAL
         &PAIR_POTENTIAL
           TYPE  DFTD3
           PARAMETER_FILE_NAME ./dftd3.dat
           REFERENCE_FUNCTIONAL PBE
         &END PAIR_POTENTIAL
       &END VDW_POTENTIAL
     &END XC
     &POISSON
       PERIODIC  XYZ
     &END POISSON
   &END DFT
   &SUBSYS
     &CELL
       A     1.9069233247494171E+01    0.0000000000000000E+00    0.0000000000000000E+00
       B     0.0000000000000000E+00    1.9071539011187134E+01    0.0000000000000000E+00
       C     0.0000000000000000E+00    0.0000000000000000E+00    1.8087590502071233E+01
       PERIODIC  XYZ
       MULTIPLE_UNIT_CELL  1 1 1
       SYMMETRY  NONE
     &END CELL
     &COORD
C    6.6344480644001251E+00    3.5908450566458517E-03    9.0432750174641985E+00
C    1.2430878981115153E+01   -2.4288555039587685E-03    9.0441121595245342E+00
C   -1.9105488692771695E-03    1.2437312504729697E+01    9.0433772492886408E+00
C    5.5385046036535287E-03    6.6425595325368434E+00    9.0436698968387077E+00
C    9.5356940369177767E+00    1.6172697951781402E+01    1.2514283409828441E-03
C    9.5312086488869028E+00    2.8921539984626454E+00    1.0897437865458752E-04
C    2.9038891453339937E+00    9.5342855380832301E+00    2.7464406739718407E-05
C    1.6175605128912391E+01    9.5380514860638037E+00   -1.2187070911580455E-04
C    1.7671788211004820E+01    9.5369477614872586E+00    2.0635927290971927E-03
C    1.4064452964958172E+00    9.5354260079134541E+00    5.8150225847269183E-04
C    9.5315653062763062E+00    1.3970410454253366E+00   -1.4816259544809848E-03
C    9.5343432592197868E+00    1.7669114835275725E+01   -2.9583734373071799E-03
C    3.5034480146559645E-03    8.1378200059960779E+00    9.0437243466734945E+00
C   -5.9613618994010741E-04    1.0940829568212198E+01    9.0442540602405241E+00
C    1.0934481980273388E+01   -1.4676954535289524E-03    9.0435274534195482E+00
C    8.1308302633294893E+00    2.0360047673022028E-03    9.0439357107864602E+00
C    1.8377550956546219E+01    1.0751423079048909E+01   -8.2718220513136966E-04
C    6.9962880993751664E-01    8.3208070101011096E+00   -7.4234283616226009E-04
C    1.0747509105028810E+01    6.9455376888807785E-01    7.9810770129567295E-04
C    8.3183947160586094E+00    1.8371822325549598E+01    1.1249615893594023E-03
C    1.0749098647236961E+01    1.8373788290931625E+01    1.1008821023220667E-03
C    8.3164826949772266E+00    6.9289487313094245E-01    9.8171553943513326E-04
C    1.8375863952073455E+01    8.3220076929352267E+00   -8.0865630433854215E-04
C    7.0132782404446836E-01    1.0750216245161283E+01   -3.6903761078947652E-04
C    1.0229934646115279E+01    1.2150293760070849E+00    9.0435844995316721E+00
C    8.8354945266140987E+00    1.7857040538392098E+01    9.0437031120191218E+00
C    1.7854554217943921E+01    1.0233602481355277E+01    9.0438938378333180E+00
C    1.2176291207356806E+00    8.8439701543979190E+00    9.0438762142066480E+00
C    1.7855845813868420E+01    8.8413666946743366E+00    9.0440053314198021E+00
C    1.2158453652630372E+00    1.0236274195492186E+01    9.0436433269989287E+00
C    1.0228063773134890E+01    1.7855662721957458E+01    9.0437701067768259E+00
C    8.8372987313109697E+00    1.2164667370646420E+00    9.0434995262906863E+00
C    4.3000567704942840E+00    4.2987454145616528E+00    5.7630876867816161E+00
C    1.4775992187652284E+01    1.4770912471109849E+01    1.2318139749483667E+01
C    4.2994400730748881E+00    4.3009831199693220E+00    1.2324532457113687E+01
C    1.4774475588012633E+01    1.4774731439346576E+01    5.7679980238891488E+00
C    4.3004737138028224E+00    1.4769667352979981E+01    5.7725276421418421E+00
C    1.4775516528044365E+01    4.3031682763928600E+00    1.2315529289325557E+01
C    4.3014865774513664E+00    1.4769026072125403E+01    1.2314789106331387E+01
C    1.4768418237746245E+01    4.2929114347871993E+00    5.7724365534822990E+00
C    5.2310468405254307E+00    1.3836988046230568E+01    1.4814632827801711E+01
C    1.3833816797294288E+01    5.2299421707456064E+00    3.2836146677105624E+00
C    5.2331879022367422E+00    1.3837312754315459E+01    3.2745863943907452E+00
C    1.3836242565313491E+01    5.2368786319407823E+00    1.4799598575656118E+01
C    5.2357392721082636E+00    5.2342084834023161E+00    1.4806977146416184E+01
C    1.3829420920355139E+01    1.3838161049041998E+01    3.2804072953387640E+00
C    5.2338506741124968E+00    5.2390796929764827E+00    3.2819155480519298E+00
C    1.3838651442527945E+01    1.3835388111263722E+01    1.4795249445672191E+01
C    1.3322507101799610E+01    1.3335778015124333E+01    1.6090104160578246E+01
C    5.7401028956947293E+00    5.7384528994539252E+00    1.9710013239762152E+00
C    1.3331254517774862E+01    1.3337064404068274E+01    1.9734099599765713E+00
C    5.7412357626473014E+00    5.7352016395481495E+00    1.6119545577474398E+01
C    1.3327981524461466E+01    5.7389294558481554E+00    1.6102661267177055E+01
C    5.7425954992509736E+00    1.3332205402700378E+01    1.9649058798739241E+00
C    1.3327222649971095E+01    5.7373526428979948E+00    1.9803989354381821E+00
C    5.7418119251267550E+00    1.3330903628089285E+01    1.6124733186598874E+01
C    1.5278399602478050E+01    3.7932194421811021E+00    7.0824241772742953E+00
C    3.7938396406086352E+00    1.5278250327805328E+01    1.1003501204472053E+01
C    1.5279915558205747E+01    3.7998228745226927E+00    1.1005466317955923E+01
C    3.7934673149062061E+00    1.5277105390155235E+01    7.0835230128579552E+00
C    1.5274307589851787E+01    1.5274383949735315E+01    7.0720063224886296E+00
C    3.7954234824009614E+00    3.7962858012321319E+00    1.1012945691340670E+01
C    1.5272533935286315E+01    1.5275196572109369E+01    1.1015640861165709E+01
C    3.8030868277517103E+00    3.7959046571023767E+00    7.0763713325448396E+00
C    3.6743462360362078E+00    5.3928599188270860E+00    5.1366246567076610E+00
C    1.5406707881038795E+01    1.3681915578420565E+01    1.2944986421023522E+01
C    3.6749183900883220E+00    5.3924260458588558E+00    1.2952579026561668E+01
C    1.5397952272772725E+01    1.3683850015302554E+01    5.1379017320040870E+00
C    5.3922241869072636E+00    1.5391650624524367E+01    5.1413163383958471E+00
C    1.3677131673328988E+01    3.6800448053548087E+00    1.2948126614038472E+01
C    5.3928307828419095E+00    1.5390527864912517E+01    1.2946799619046486E+01
C    1.3675731165276051E+01    3.6714998435265018E+00    5.1459662641426887E+00
C    5.3931133191259901E+00    3.6779579407690739E+00    1.2951004190427103E+01
C    1.3675361248784746E+01    1.5395007985808540E+01    5.1393116841507362E+00
C    5.3962581952673050E+00    3.6811346208540967E+00    5.1391740802489565E+00
C    1.3675522017024415E+01    1.5393465715738886E+01    1.2949345423947133E+01
C    3.6806785660806005E+00    1.3675542442175413E+01    1.2945890606261580E+01
C    1.5387428113954575E+01    5.3942644700911471E+00    5.1441531012897421E+00
C    3.6801560326390441E+00    1.3676298158764453E+01    5.1412820355886311E+00
C    1.5404819749674509E+01    5.3901483184970962E+00    1.2947068867202525E+01
C    5.8544136470535566E+00    1.4929554172022673E+01    3.9066539446451158E+00
C    1.3219112591079124E+01    4.1371467380873748E+00    1.4179054630324170E+01
C    5.8533807016936166E+00    1.4928790432581707E+01    1.4182314341463693E+01
C    1.3211525233068771E+01    4.1350439344952115E+00    3.9160649489106722E+00
C    4.1416565660926326E+00    5.8614978926527064E+00    3.9094035414611459E+00
C    1.4937924924720342E+01    1.3213244671935650E+01    1.4166096249516031E+01
C    4.1415404174625339E+00    5.8582550288913007E+00    1.4180026160870556E+01
C    1.4925980290556925E+01    1.3216559019596383E+01    3.9131044951718961E+00
C    4.1390040392719891E+00    1.3215708932429685E+01    1.4183769243984880E+01
C    1.4922077784167461E+01    5.8556628691152719E+00    3.9139021974658719E+00
C    4.1398982521387717E+00    1.3216779927647954E+01    3.9041354484507549E+00
C    1.4934675531800147E+01    5.8584474058605025E+00    1.4169692236605526E+01
C    5.8535102634654157E+00    4.1374498680848735E+00    1.4183024813705513E+01
C    1.3213608406891144E+01    1.4934243570601842E+01    3.9071538365491936E+00
C    5.8560963511349646E+00    4.1434350857407551E+00    3.9073787409628267E+00
C    1.3219417821538254E+01    1.4935151172748919E+01    1.4179120216373640E+01
H    1.6258180831360988E+01    1.3208639788432878E+01    1.2458304031362859E+01
H    2.8163700910572493E+00    5.8597483328487163E+00    5.6206362536524708E+00
H    1.6249378511753100E+01    1.3207069670972212E+01    5.6239640491034253E+00
H    2.8244886532424074E+00    5.8677150945619845E+00    1.2463402707374716E+01
H    1.3198535595561831E+01    2.8337685980084544E+00    1.2455671848391249E+01
H    5.8663819508461090E+00    1.6242726425055551E+01    5.6298048647883494E+00
H    1.3207596158314205E+01    2.8138070545782816E+00    5.6285278114680830E+00
H    5.8669585681828647E+00    1.6242510747617899E+01    1.2459929401386400E+01
H    2.8302985713245645E+00    1.3198602987228700E+01    5.6291832706525575E+00
H    1.6254006918999711E+01    5.8656818886737252E+00    1.2457829164674715E+01
H    2.8304705800090342E+00    1.3198428734225901E+01    1.2458162263489667E+01
H    1.6242835096708934E+01    5.8652766065076447E+00    5.6280664389049351E+00
H    5.8669310589205672E+00    2.8263949926527210E+00    5.6255238547021431E+00
H    1.3191736852793682E+01    1.6235852899138493E+01    1.2454684801067843E+01
H    5.8725447933700163E+00    2.8334187721012816E+00    1.2456475715259986E+01
H    1.3192168282465826E+01    1.6236170136736117E+01    5.6367652604692999E+00
H    1.5405237494467135E+01    6.6987067394562549E+00    3.4190163573445713E+00
H    3.6597079913869308E+00    1.2367989133930825E+01    1.4673701055141860E+01
H    1.5396206178309425E+01    6.7183199767349322E+00    1.4656090749202825E+01
H    3.6613566231877233E+00    1.2369536878205880E+01    3.4126501659444859E+00
H    1.2359201648582738E+01    1.5407323592149787E+01    3.4225879361062228E+00
H    6.7089254181677926E+00    3.6682218802631459E+00    1.4668774053303732E+01
H    1.2367568323970962E+01    1.5404855715751175E+01    1.4670351150274501E+01
H    6.7008783532605101E+00    3.6649324901957714E+00    3.4125532463588972E+00
H    3.6748789674820967E+00    6.7174111115548554E+00    1.4662246443674986E+01
H    1.5391424200744598E+01    1.2357760098402796E+01    3.4290006097190271E+00
H    3.6660090928551794E+00    6.7120463431609663E+00    3.4200365657290361E+00
H    1.5397945643525775E+01    1.2353212169520386E+01    1.4653766322862422E+01
H    6.7047499945842963E+00    1.5403352065618627E+01    1.4670106301063507E+01
H    1.2362241992061797E+01    3.6610821250112870E+00    3.4248461314642631E+00
H    6.7058142510948446E+00    1.5404236943500406E+01    3.4187053903426587E+00
H    1.2366904588451444E+01    3.6658052894980138E+00    1.4668341355613096E+01
H    8.1301425161789993E+00    1.0940853555711655E+01    1.0219074082342095E-03
H    1.0941547360680980E+01    8.1252963186022722E+00   -4.5878587767155359E-03
H    8.1320914469795120E+00    8.1297348700168044E+00   -6.0536025779065741E-04
H    1.0939941562043783E+01    1.0943273738781787E+01   -1.5058176924436742E-03
H    1.7662121478019554E+01    1.4097788851981843E+00    9.0414357660891689E+00
H    1.4086792216041146E+00    1.7668295660018710E+01    9.0430847720583003E+00
H    1.7665329970368745E+01    1.7667737975207562E+01    9.0446432686016411E+00
H    1.4039231401300878E+00    1.4047545981159184E+00    9.0451365665653825E+00
H    7.3816271432801184E+00    1.2530354699480544E+00   -6.0160171998312672E-04
H    1.1684290168301828E+01    1.7814581470553058E+01   -8.1828989317826815E-04
H    1.2598759511388926E+00    1.1686067895191403E+01    8.4094522190054151E-04
H    1.7815883292461674E+01    7.3868148327033802E+00    5.0680050267650390E-04
H    1.2571956288821213E+00    7.3843921107514436E+00    5.6082397471702910E-04
H    1.7817995508747750E+01    1.1686779722033792E+01    3.5310199674832155E-04
H    7.3832842798906189E+00    1.7812063584655419E+01   -8.5634561291730762E-04
H    1.1681994696745337E+01    1.2552390256803247E+00   -7.3040887882932972E-04
H    2.1510684109399416E+00    1.0795350924048696E+01    9.0437200753791753E+00
H    1.6921235615996668E+01    8.2808483157006787E+00    9.0442215924702634E+00
H    8.2787214356409784E+00    2.1524507700676079E+00    9.0436954115125072E+00
H    1.0786834638278373E+01    1.6919804209446713E+01    9.0439755476987838E+00
H    8.2762040374654315E+00    1.6921576426941904E+01    9.0438618751101423E+00
H    1.0789444557735608E+01    2.1503676163103855E+00    9.0438649709035701E+00
H    2.1526232111453929E+00    8.2839198421305724E+00    9.0438903764380498E+00
H    1.6918477652277176E+01    1.0791627038167752E+01    9.0441024277635833E+00
O    6.0295076518194062E+00    1.1309077633215932E+00    9.0439093126263010E+00
O    1.3037197137788079E+01    1.7942305496936502E+01    9.0438218003910578E+00
O    1.1278253519015120E+00    1.3038647324664613E+01    9.0444914001620678E+00
O    1.7944950714604740E+01    6.0439288139977387E+00    9.0434388101309207E+00
O    1.1313735299992438E+00    6.0345301983755766E+00    9.0435295568864795E+00
O    1.7939009972688652E+01    1.3041006393826104E+01    9.0441336555553562E+00
O    6.0330427131841482E+00    1.7945785926345462E+01    9.0437212634452404E+00
O    1.3032671077767471E+01    1.1266449997441670E+00    9.0444671645920849E+00
O    3.5051641188391685E+00    1.0663374538513070E+01   -8.6160655806304486E-05
O    1.5573942853698162E+01    8.4089464075674947E+00    2.5034859712175501E-03
O    8.4054773853007951E+00    3.4984698360281419E+00   -6.2442871226426309E-04
O    1.0663894842445886E+01    1.5570119925419235E+01   -1.3581656946691891E-03
O    8.4081463318076395E+00    1.5571108424852948E+01   -1.7952146094281473E-03
O    1.0660057066322773E+01    3.4924265406679620E+00   -2.1576211109147320E-03
O    3.5064381665766424E+00    8.4054929150862030E+00    9.6054963734381314E-04
O    1.5571559165223757E+01    1.0665181798234524E+01    6.3460285246570963E-04
O    1.3344690401326565E+01    9.5341659492466313E+00    1.6854736921784973E+01
O    5.7259017612720671E+00    9.5351333336194575E+00    1.2333008091104203E+00
O    1.3347422639234377E+01    9.5368928501277423E+00    1.2313631004632435E+00
O    5.7264267941673888E+00    9.5347494452554749E+00    1.6853852428857497E+01
O    9.5349366023371740E+00    5.7266214814788032E+00    1.6852854475843838E+01
O    9.5377403205696325E+00    1.3344338373210116E+01    1.2316649242240565E+00
O    9.5355869423782664E+00    5.7261103654112846E+00    1.2308184400417315E+00
O    9.5337594596824218E+00    1.3345636851939592E+01    1.6852364536814939E+01
O    2.4196468715913664E-04    3.8105289167001133E+00    7.8091037999852855E+00
O    7.2180859192072977E-04    1.5262150488581547E+01    1.0278668146964304E+01
O    3.5792421054199283E-04    3.8102503920741415E+00    1.0277699795011378E+01
O    4.5040853905555037E-04    1.5262091776391552E+01    7.8093710275136790E+00
O    1.5261001374064490E+01   -1.7166057784825934E-03    7.8091528805765034E+00
O    3.8087670801226188E+00   -4.6305406113787516E-04    1.0276496038198697E+01
O    1.5260069797961295E+01   -4.4344898884068781E-04    1.0280045981416981E+01
O    3.8088824647811839E+00    2.4361802630882927E-04    7.8113319510280244E+00
O    4.3879436177417466E+00    2.7939543814857410E+00    7.6116871287858254E+00
O    1.4683460599932015E+01    1.6279667534843053E+01    1.0479362825954116E+01
O    4.3847976351336042E+00    2.7967001330924166E+00    1.0479011473488676E+01
O    1.4683346378002680E+01    1.6273248132995882E+01    7.6155092773646516E+00
O    2.7891440789346857E+00    1.4686256745144833E+01    7.6081667135037314E+00
O    1.6284878179187412E+01    4.3843999955617141E+00    1.0476991024626010E+01
O    2.7897839842505578E+00    1.4686699637766310E+01    1.0479061537531846E+01
O    1.6280194923522821E+01    4.3831568316734559E+00    7.6118371641094171E+00
O    2.7972886413290552E+00    4.3872261503230909E+00    1.0482423124465759E+01
O    1.6274186814980574E+01    1.4685509548438574E+01    7.6098610279593242E+00
O    2.8119770200523053E+00    4.3921416751193796E+00    7.6138263122665562E+00
O    1.6267799346677272E+01    1.4685526012686182E+01    1.0472708526042478E+01
O    4.3829264496501263E+00    1.6281265633077837E+01    1.0476013832361344E+01
O    1.4686331484281640E+01    2.7901224979521291E+00    7.6130416730749335E+00
O    4.3827015768974231E+00    1.6278957934887227E+01    7.6128854830894515E+00
O    1.4688364775475629E+01    2.7958912936531486E+00    1.0475152252679365E+01
O    5.1526839590033777E+00    1.2331013553183116E+01    1.4288907903343981E+00
O    1.3921871494914146E+01    6.7260618075901188E+00    1.6658692791794934E+01
O    5.1526555824338756E+00    1.2325753208668615E+01    1.6655191266844753E+01
O    1.3916400751967407E+01    6.7430073704017879E+00    1.4583870703378981E+00
O    6.7367367007681658E+00    5.1486885770064124E+00    1.4361352241625285E+00
O    1.2288721802274752E+01    1.3917932059648143E+01    1.6565732002822109E+01
O    6.7390687014394599E+00    5.1463188376512674E+00    1.6653466938705201E+01
O    1.2329027077559996E+01    1.3922241558955216E+01    1.4335571034600021E+00
O    6.7412501146837336E+00    1.3919696699106535E+01    1.6655045015468804E+01
O    1.2325601591675966E+01    5.1520566912195500E+00    1.4384551958253040E+00
O    6.7438858463324500E+00    1.3919848848690396E+01    1.4365340786411300E+00
O    1.2310012658160357E+01    5.1522389497080736E+00    1.6604763200741832E+01
O    5.1469304723847076E+00    6.7318808294436492E+00    1.6653205943585398E+01
O    1.3920878465928670E+01    1.2339131350641384E+01    1.4348455424894175E+00
O    5.1489140871289507E+00    6.7366471522502049E+00    1.4349158049029078E+00
O    1.3921042645993172E+01    1.2356992967759819E+01    1.6655757707992862E+01
O    2.0893773507827302E+00    2.0904985185667733E+00    9.0436852592865922E+00
O    1.6981099650702372E+01    1.6981380075246232E+01    9.0439858209173742E+00
O    2.0910241483312126E+00    1.6979547778019903E+01    9.0436045957833127E+00
O    1.6975973180058400E+01    2.0942858144854388E+00    9.0436791768394809E+00
O    7.4446834939744591E+00    1.1626539705560569E+01    1.5021227504272155E-04
O    1.1629187211862096E+01    7.4431666733152788E+00   -5.3561391799431728E-04
O    7.4444685887471618E+00    7.4460780433272369E+00   -3.2153420144864672E-04
O    1.1626727243616518E+01    1.1627065446309480E+01   -5.9866989377143623E-04
Ti    1.5065940554999719E+01    1.3691127844815256E+00    9.0438076139105448E+00
Ti    4.0055895319561419E+00    1.7697818187084909E+01    9.0418455295555287E+00
Ti    1.7706310681175946E+01    1.5077573459561835E+01    9.0440354131876894E+00
Ti    1.3488672105116954E+00    3.9983165478597464E+00    9.0434776988839189E+00
Ti    1.7692003956655892E+01    4.0175046298863419E+00    9.0426588436971187E+00
Ti    1.3620031158474437E+00    1.5068891213125552E+01    9.0441669756767187E+00
Ti    1.5076158823980231E+01    1.7716913507931761E+01    9.0448746111501972E+00
Ti    3.9919743254737048E+00    1.3566534605162084E+00    9.0456638632562800E+00
Ti    5.5386954966023358E+00    1.0903707460017459E+01    8.1692662107928863E-04
Ti    1.3542749661775357E+01    8.1694888534304599E+00    4.1868478186847455E-03
Ti    8.1839040976192940E+00    5.5332093934083124E+00   -1.1090514745398688E-03
Ti    1.0906139493616321E+01    1.3539128639443783E+01   -1.0220828296786706E-02
Ti    8.1723514134852966E+00    1.3540197041534366E+01    2.3903832952223590E-03
Ti    1.0916558758187277E+01    5.5208551271734807E+00   -6.9608736395066033E-03
Ti    5.5432665435968804E+00    8.1765971171602985E+00   -1.7862590405051098E-03
Ti    1.3533288021738962E+01    1.0896861099740086E+01   -4.6460199200532952E-03
       SCALED  F
     &END COORD
     &KIND H
       BASIS_SET cc-TZ
       POTENTIAL GTH-PBE-q1
       &POTENTIAL
 1
  0.2000000000000000E+00 2 -0.4178900440000000E+01  0.7244633100000000E+00
 0
         # Potential name:  GTH-PBE-Q1  for symbol:  H
         # Potential read from the potential filename: ./GTH_POTENTIALS
       &END POTENTIAL
     &END KIND
     &KIND C
       BASIS_SET cc-TZ
       POTENTIAL GTH-PBE-q4
       &POTENTIAL
 2 2
  0.3384712400000000E+00 2 -0.8803673979999999E+01  0.1339210850000000E+01
 2
  0.3025757500000000E+00 1  0.9622486650000001E+01
  0.2915069400000000E+00 0
         # Potential name:  GTH-PBE-Q4  for symbol:  C
         # Potential read from the potential filename: ./GTH_POTENTIALS
       &END POTENTIAL
     &END KIND
     &KIND O
       BASIS_SET cc-TZ
       POTENTIAL GTH-PBE-q6
       &POTENTIAL
 2 4
  0.2445543000000000E+00 2 -0.1666721480000000E+02  0.2487311320000000E+01
 2
  0.2209559200000000E+00 1  0.1833745811000000E+02
  0.2113324700000000E+00 0
         # Potential name:  GTH-PBE-Q6  for symbol:  O
         # Potential read from the potential filename: ./GTH_POTENTIALS
       &END POTENTIAL
     &END KIND
     &KIND Ti
       BASIS_SET DZV-GTH-PADE
       POTENTIAL GTH-PBE-q12
       &POTENTIAL
 4 6 2
  0.3800000000000000E+00 2  0.8711442180000001E+01 -0.7002867699999999E+00
 3
  0.3377707800000000E+00 2  0.2575263860000000E+01  0.3692970650000000E+01
 -0.4767604610000000E+01
  0.2425313500000000E+00 2 -0.4630541230000000E+01  0.8870875020000000E+01
 -0.1049616087000000E+02
  0.2433169400000000E+00 1 -0.9406652680000001E+01
         # Potential name:  GTH-PBE-Q12  for symbol:  TI
         # Potential read from the potential filename: ./GTH_POTENTIALS
       &END POTENTIAL
     &END KIND
     &TOPOLOGY
       NUMBER_OF_ATOMS  240
       MULTIPLE_UNIT_CELL  1 1 1
     &END TOPOLOGY
   &END SUBSYS
 &END FORCE_EVAL
