 &CONTROL 
    calculation = 'vc-relax' 
    verbosity   = 'high' 
    restart_mode= 'from_scratch' 
    wf_collect  = .true. 
    outdir      = './' 
    prefix      = 'pwscf' 
    pseudo_dir  = '/scratch/ongari/0_LIBRARIES/2_espresso/pbe.1.0.0' 
 / 
 &SYSTEM 
    ibrav = 0 
    nat   = 840 
    ntyp  = 4 
      ecutwfc = 70 
      ecutrho = 350 
    occupations = 'smearing' 
    smearing    = 'gaussian' 
    degauss     = 0.02 
      tot_charge                 = 0.0 
      nspin                      = 1 
      tot_magnetization          = -1 
      !starting_magnetization(i) = + 0.1 
/ 
 &ELECTRONS 
    scf_must_converge = .false. 
    electron_maxstep  = 100 
    conv_thr          = 1.0d-6 
    mixing_mode       = 'local-TF' 
    mixing_beta       = 0.7 
    diagonalization   = 'david' 
 / 
 &IONS 
    ion_dynamics = 'bfgs' 
 / 
 &CELL 
    cell_dynamics  = 'bfgs' 
    press          = 0.d0 
    cell_factor    = 1.2d0 
    press_conv_thr = 0.5d0 
    cell_dofree    = 'all' 
 / 
ATOMIC_SPECIES 
  H    1.008   H.pbe-kjpaw_psl.1.0.0.UPF   ! 	 46.Ry	 221.Ry
  C   12.011   C.pbe-n-kjpaw_psl.1.0.0.UPF ! 	 40.Ry	 326.Ry
  O   15.999   O.pbe-n-kjpaw_psl.1.0.0.UPF ! 	 47.Ry	 323.Ry
 Cu   63.546   Cu.pbe-dn-kjpaw_psl.1.0.0.UPF ! 	 45.Ry	 236.Ry (spn available)
 
CELL_PARAMETERS angstrom 
33.17600000  0.00000000  0.00000000
 0.00000000 33.18200000  0.00000000
 0.00000000  0.00000000 23.06300000
 
ATOMIC_POSITIONS angstrom 
 Cu   7.58000000   7.55200000  11.52700000 
 Cu   5.81700000   5.79900000  11.53100000 
 Cu  11.24700000  11.26000000   3.86800000 
 Cu  12.51500000  12.52700000   5.59300000 
 Cu  16.55600000   8.57100000  11.50000000 
 Cu  16.55600000   6.08200000  11.49800000 
  O   6.71100000   1.40300000   6.66400000 
  O   8.35400000   1.39800000   5.06800000 
  O   8.48500000   6.49300000  10.07200000 
  O   6.84100000   4.90000000  10.12000000 
  O  11.61300000   9.62100000   4.94800000 
  O  12.74500000  10.81600000   6.53900000 
  O  15.13000000   6.19200000  10.12400000 
  O  15.19500000   8.48300000  10.05700000 
  C   8.50800000   2.93900000   6.85300000 
  C   7.90900000   3.60000000   7.93500000 
  H   6.92900000   3.29400000   8.28900000 
  C   8.57600000   4.67500000   8.53900000 
  C   9.84500000   5.07000000   8.08000000 
  H  10.33800000   5.91100000   8.56200000 
  C  10.45800000   4.39500000   7.01800000 
  C   9.77300000   3.33900000   6.40500000 
  H  10.21500000   2.81400000   5.56100000 
  C  12.60400000   8.47500000   6.77300000 
  C  13.46300000   8.51500000   7.88000000 
  H  13.87900000   9.46100000   8.21600000 
  C  13.80600000   7.32400000   8.52900000 
  C  13.27800000   6.10300000   8.08000000 
  H  13.56500000   5.18800000   8.59400000 
  C  12.41200000   6.05700000   6.98300000 
  C  12.07900000   7.25200000   6.33400000 
  H  11.41700000   7.24500000   5.47000000 
  C  11.85000000   4.74100000   6.50500000 
  H  12.53500000   3.92900000   6.79400000 
  H  11.82200000   4.73500000   5.40500000 
  C   7.80100000   1.82100000   6.14400000 
  C   7.92300000   5.41900000   9.67000000 
  C  12.28700000   9.73700000   6.02700000 
  C  14.78400000   7.33700000   9.66700000 
  O   4.84300000  31.77700000   4.60900000 
  O   6.49600000  31.72800000   3.02400000 
  C   5.41700000  31.30800000   3.56700000 
  C   4.76600000  30.11500000   2.93400000 
  C   3.60200000  29.57400000   3.49200000 
  H   3.15000000  30.03300000   4.36700000 
  C   5.36000000  29.50500000   1.81800000 
  H   6.27000000  29.94000000   1.40900000 
  C   4.80400000  28.35300000   1.25300000 
  C   5.41300000  27.73000000   0.01000000 
  H   5.23800000  26.64500000   0.01600000 
  O  13.00800000  10.96200000   2.95500000 
  O  14.13800000  12.14700000   4.55600000 
  C  14.06800000  11.41400000   3.51000000 
  C  15.38100000  11.02100000   2.89900000 
  C  16.58800000  11.45000000   3.47100000 
  H  16.58000000  12.09600000   4.34400000 
  C  15.39600000  10.17100000   1.78400000 
  H  14.44600000   9.84800000   1.36400000 
  C  16.60500000   9.73600000   1.23200000 
  C  16.60600000   8.86700000  -0.01200000 
  H  15.72600000   8.21000000  -0.00600000 
 Cu  27.47300000   0.02100000  17.35600000 
 Cu   5.68800000  -0.01400000  17.36200000 
 Cu  -0.00100000  27.48500000  17.36400000 
 Cu   0.01200000   5.70000000  17.35100000 
 Cu   5.69500000  -0.00300000   5.70300000 
 Cu  27.47900000   0.01800000   5.70900000 
 Cu  -0.00300000  27.48700000   5.70400000 
 Cu   0.01700000   5.70400000   5.70800000 
 Cu  25.69300000   0.02000000  19.08400000 
 Cu   7.47600000  -0.01400000  19.09100000 
 Cu  -0.01500000  25.69600000  19.08900000 
 Cu   0.01300000   7.49300000  19.07300000 
 Cu   7.48100000  -0.01000000   3.97100000 
 Cu  25.69800000   0.01700000   3.97700000 
 Cu  -0.01300000  25.70000000   3.97400000 
 Cu   0.01700000   7.48800000   3.98600000 
 Cu  25.62700000  25.65000000  11.53700000 
 Cu  25.61800000   7.58000000  11.53000000 
 Cu   7.53500000  25.63800000  11.53000000 
 Cu  27.36800000  27.42400000  11.53300000 
 Cu  27.36600000   5.81600000  11.53100000 
 Cu   5.77000000  27.38600000  11.52900000 
 Cu  21.92600000  21.91400000   3.93100000 
 Cu  21.92400000  11.25500000   3.91900000 
 Cu  11.25200000  21.91800000   3.92200000 
 Cu  21.91800000  11.25200000  19.12500000 
 Cu  11.26000000  21.92800000  19.13100000 
 Cu  11.25800000  11.25400000  19.13600000 
 Cu  21.91800000  21.92000000  19.11100000 
 Cu  20.66200000  20.65000000   5.66000000 
 Cu  20.65800000  12.51700000   5.64800000 
 Cu  12.51200000  20.65200000   5.65300000 
 Cu  20.65500000  12.51700000  17.41000000 
 Cu  12.52500000  20.66900000  17.41200000 
 Cu  12.52500000  12.51600000  17.41300000 
 Cu  20.65300000  20.65800000  17.40700000 
 Cu  16.58900000  24.61700000  11.52900000 
 Cu  24.61300000  16.58800000  11.53100000 
 Cu   8.58500000  16.59200000  11.53200000 
 Cu  16.58900000  27.10600000  11.52700000 
 Cu  27.10000000  16.58700000  11.53100000 
 Cu   6.09300000  16.59000000  11.53100000 
  O  26.45900000  31.79000000   6.66300000 
  O  31.78300000   6.71900000   6.66800000 
  O   1.40100000  26.46700000   6.66300000 
  O  26.47900000   1.45800000  16.39700000 
  O   6.70600000  31.77700000  16.39500000 
  O   1.44700000   6.69300000  16.39100000 
  O  31.77500000  26.47700000  16.39700000 
  O  26.45900000  31.79100000  16.40000000 
  O   6.71000000   1.39800000  16.40300000 
  O   1.40200000  26.46800000  16.40200000 
  O  31.77900000   6.71600000  16.39600000 
  O   6.71000000  31.77800000   6.66400000 
  O  26.48600000   1.45900000   6.66500000 
  O  31.77300000  26.48000000   6.67000000 
  O   1.45500000   6.69500000   6.66900000 
  O  24.82000000  31.78500000   5.06300000 
  O  31.77700000   8.36000000   5.07200000 
  O   1.39800000  24.82400000   5.06600000 
  O  24.80800000   1.40100000  17.95700000 
  O   8.35900000  31.78300000  17.97900000 
  O   1.39300000   8.37000000  17.94600000 
  O  31.77700000  24.82100000  17.97700000 
  O  24.81900000  31.78600000  17.99800000 
  O   8.35400000   1.39600000  17.99800000 
  O   1.39700000  24.82300000  17.99500000 
  O  31.77500000   8.36100000  17.98800000 
  O   8.36100000  31.78300000   5.07700000 
  O  24.81400000   1.39600000   5.10500000 
  O  31.78000000  24.82000000   5.09600000 
  O   1.39700000   8.36900000   5.11400000 
  O  24.75100000  26.69400000  10.06400000 
  O  26.71100000   8.49200000  10.11200000 
  O   6.43100000  24.69700000  10.13100000 
  O  24.69100000   6.49800000  12.94600000 
  O   8.48400000  26.74500000  12.92000000 
  O   6.49800000   8.48000000  12.94900000 
  O  26.67600000  24.75900000  12.99600000 
  O  24.69000000  26.75300000  12.93500000 
  O   8.48200000   6.43600000  12.93800000 
  O   6.49000000  24.75700000  12.99800000 
  O  26.71100000   8.49200000  12.94800000 
  O   8.42100000  26.68600000  10.06600000 
  O  24.69100000   6.49400000  10.11200000 
  O  26.74600000  24.69900000  10.16600000 
  O   6.49400000   8.48800000  10.11900000 
  O  26.34100000  28.34100000  10.13000000 
  O  28.28300000   6.83100000  10.12400000 
  O   4.85200000  26.35600000  10.12500000 
  O  26.34000000   4.90900000  12.93600000 
  O   6.78700000  28.28200000  12.94900000 
  O   4.91000000   6.82900000  12.93500000 
  O  28.27700000  26.39500000  12.94100000 
  O  26.34300000  28.33900000  12.93700000 
  O   6.82900000   4.84900000  12.93000000 
  O   4.84400000  26.34800000  12.92800000 
  O  28.28300000   6.83100000  12.93900000 
  O   6.82200000  28.32500000  10.14100000 
  O  26.34100000   4.90700000  10.12600000 
  O  28.27400000  26.40300000  10.11900000 
  O   4.90800000   6.83600000  10.12900000 
  O  21.56000000  23.56000000   5.00400000 
  O  23.55800000  11.61500000   5.00800000 
  O   9.62200000  21.56800000   5.02000000 
  O  21.56300000   9.62400000  18.00500000 
  O  11.61000000  23.55500000  18.01700000 
  O   9.61900000  11.61500000  18.05500000 
  O  23.55100000  21.57000000  18.01500000 
  O  21.56600000  23.55500000  18.01500000 
  O  11.61200000   9.62800000  18.01700000 
  O   9.61900000  21.56700000  18.05300000 
  O  23.55800000  11.61400000  18.05300000 
  O  11.61600000  23.55900000   5.00300000 
  O  21.56400000   9.62100000   5.00900000 
  O  23.55100000  21.57100000   5.04700000 
  O   9.62300000  11.61500000   4.99500000 
  O  20.43300000  22.36700000   6.60100000 
  O  22.36800000  12.75300000   6.59900000 
  O  10.80400000  20.39600000   6.59500000 
  O  20.36800000  10.81400000  16.45800000 
  O  12.80600000  22.37400000  16.46300000 
  O  10.81400000  12.74600000  16.46300000 
  O  22.36500000  20.38000000  16.46000000 
  O  20.37600000  22.37100000  16.46000000 
  O  12.80600000  10.81000000  16.46200000 
  O  10.81300000  20.43600000  16.46200000 
  O  22.36600000  12.74700000  16.46200000 
  O  12.74600000  22.36700000   6.59900000 
  O  20.42200000  10.81000000   6.59900000 
  O  22.37000000  20.37500000   6.60200000 
  O  10.81400000  12.81000000   6.54100000 
  O  17.98300000  27.00300000  10.12300000 
  O  26.99900000  15.19600000  10.12400000 
  O   6.17900000  17.98400000  10.12700000 
  O  17.98100000   6.17900000  12.87600000 
  O  15.19700000  27.02200000  12.93300000 
  O   6.18600000  15.19800000  12.93700000 
  O  27.01600000  17.98300000  12.93500000 
  O  17.98000000  27.02600000  12.93400000 
  O  15.19800000   6.16200000  12.93500000 
  O   6.18400000  17.98400000  12.93700000 
  O  27.00000000  15.19700000  12.93900000 
  O  15.19400000  26.99900000  10.12300000 
  O  17.91600000   6.17300000  10.06300000 
  O  27.01400000  17.98300000  10.12800000 
  O   6.19700000  15.19800000  10.12500000 
  O  17.98300000  24.71100000  10.11800000 
  O  24.70800000  15.19500000  10.12000000 
  O   8.47200000  17.98600000  10.12100000 
  O  17.91600000   8.46800000  12.94200000 
  O  15.19700000  24.73300000  12.93700000 
  O   8.47900000  15.19700000  12.94300000 
  O  24.72800000  17.98200000  12.93800000 
  O  17.98000000  24.73800000  12.93800000 
  O  15.13000000   8.44900000  12.87600000 
  O   8.47700000  17.98600000  12.94300000 
  O  24.70800000  15.19500000  12.94300000 
  O  15.19400000  24.70600000  10.11900000 
  O  17.98200000   8.46200000  10.12100000 
  O  24.72600000  17.98200000  10.12500000 
  O   8.48900000  15.19700000  10.12000000 
  C  24.66500000  30.25000000   6.85300000 
  C  30.24200000   8.51400000   6.86500000 
  C   2.92300000  24.66200000   6.86500000 
  C  24.65400000   2.96000000  16.18300000 
  C   8.50700000  30.25300000  16.18400000 
  C   2.94800000   8.51400000  16.17400000 
  C  30.24000000  24.68400000  16.18900000 
  C  24.65700000  30.26000000  16.20200000 
  C   8.51400000   2.92300000  16.20000000 
  C   2.93400000  24.66900000  16.20600000 
  C  30.24100000   8.51400000  16.19700000 
  C   8.50900000  30.24900000   6.86800000 
  C  24.66000000   2.95200000   6.87700000 
  C  30.24700000  24.68100000   6.88800000 
  C   2.95700000   8.51900000   6.88200000 
  C  25.27300000  29.59300000   7.93100000 
  C  29.58300000   7.91200000   7.94600000 
  C   3.57000000  25.26200000   7.95300000 
  C  25.25600000   3.62300000  15.10600000 
  C   7.90100000  29.60100000  15.10100000 
  C   3.61200000   7.91200000  15.09700000 
  C  29.57900000  25.30000000  15.11800000 
  C  25.25500000  29.61500000  15.11100000 
  C   7.91500000   3.57000000  15.11000000 
  C   3.59000000  25.27800000  15.12800000 
  C  29.58200000   7.91200000  15.11500000 
  C   7.90000000  29.59300000   7.94500000 
  C  25.25900000   3.61200000   7.95800000 
  C  29.59500000  25.28600000   7.97200000 
  C   3.61700000   7.92100000   7.96300000 
  H  26.25400000  29.90200000   8.27800000 
  H  29.88700000   6.92900000   8.29300000 
  H   3.26200000  26.24400000   8.30000000 
  H  26.24400000   3.32900000  14.76200000 
  H   6.91800000  29.91000000  14.75600000 
  H   3.31100000   6.92800000  14.74900000 
  H  29.88700000  26.28400000  14.77600000 
  H  26.23500000  29.92600000  14.76100000 
  H   6.93400000   3.26000000  14.76200000 
  H   3.28200000  26.26100000  14.78400000 
  H  29.88500000   6.92900000  14.76700000 
  H   6.91800000  29.90100000   8.29100000 
  H  26.24300000   3.30900000   8.30600000 
  H  29.90500000  26.26900000   8.31600000 
  H   3.31300000   6.93800000   8.31300000 
  C  24.61200000  28.51900000   8.54200000 
  C  28.51500000   8.58100000   8.56000000 
  C   4.63400000  24.59500000   8.57500000 
  C  24.58500000   4.68800000  14.49000000 
  C   8.56500000  28.53300000  14.48300000 
  C   4.68200000   8.58200000  14.48800000 
  C  28.50300000  24.64200000  14.50800000 
  C  24.58800000  28.54900000  14.49300000 
  C   8.58200000   4.63500000  14.49100000 
  C   4.66200000  24.61700000  14.51500000 
  C  28.51400000   8.58200000  14.50100000 
  C   8.56000000  28.51900000   8.55800000 
  C  24.58900000   4.68100000   8.56900000 
  C  28.52700000  24.62200000   8.59000000 
  C   4.68400000   8.59100000   8.57600000 
  C  23.34000000  28.12000000   8.09600000 
  C  28.12200000   9.85400000   8.11000000 
  C   5.03400000  23.32400000   8.12600000 
  C  23.30700000   5.07300000  14.93300000 
  C   9.83700000  28.13400000  14.93200000 
  C   5.07100000   9.85500000  14.94000000 
  C  28.10600000  23.36700000  14.95100000 
  C  23.32000000  28.14600000  14.94600000 
  C   9.85100000   5.03700000  14.94200000 
  C   5.06000000  23.34400000  14.95800000 
  C  28.12200000   9.85500000  14.95100000 
  C   9.83200000  28.11900000   8.11200000 
  C  23.31600000   5.07000000   8.11500000 
  C  28.12700000  23.35000000   8.14100000 
  C   5.07600000   9.86400000   8.12400000 
  H  22.85100000  27.28100000   8.58600000 
  H  27.28700000  10.34900000   8.60100000 
  H   5.86700000  22.83100000   8.62200000 
  H  22.81000000   5.90500000  14.44000000 
  H  10.32700000  27.29700000  14.44000000 
  H   5.91000000  10.34900000  14.45400000 
  H  27.26300000  22.88200000  14.46400000 
  H  22.82700000  27.31100000  14.45300000 
  H  10.34300000   5.87100000  14.44800000 
  H   5.89900000  22.85500000  14.46800000 
  H  27.28600000  10.34900000  14.46100000 
  H  10.31900000  27.27800000   8.60000000 
  H  22.82000000   5.90700000   8.60100000 
  H  27.29100000  22.86000000   8.63300000 
  H   5.91400000  10.35800000   8.61000000 
  C  22.71700000  28.79300000   7.03900000 
  C  28.79200000  10.46900000   7.04700000 
  C   4.37400000  22.71000000   7.05600000 
  C  22.69200000   4.39900000  15.99300000 
  C  10.45400000  28.79700000  15.99800000 
  C   4.39300000  10.47000000  15.99800000 
  C  28.78200000  22.73900000  16.00300000 
  C  22.70800000  28.80500000  16.01800000 
  C  10.46400000   4.37800000  16.01300000 
  C   4.38800000  22.72000000  16.01500000 
  C  28.79200000  10.46900000  16.01400000 
  C  10.45600000  28.79100000   7.05500000 
  C  22.70300000   4.39400000   7.05400000 
  C  28.79000000  22.73300000   7.07400000 
  C   4.40200000  10.47600000   7.06100000 
  C  23.39700000  29.84700000   6.41500000 
  C  29.84200000   9.78200000   6.42400000 
  C   3.32800000  23.39500000   6.42500000 
  C  23.38100000   3.35200000  16.61900000 
  C   9.77200000  29.84700000  16.62400000 
  C   3.34100000   9.78400000  16.61600000 
  C  29.83900000  23.41500000  16.62300000 
  C  23.39300000  29.85300000  16.64600000 
  C   9.77900000   3.33100000  16.64300000 
  C   3.33400000  23.40000000  16.64000000 
  C  29.84100000   9.78200000  16.63700000 
  C   9.77700000  29.84600000   6.43100000 
  C  23.39200000   3.34400000   6.43400000 
  C  29.84100000  23.41500000   6.44800000 
  C   3.35300000   9.78700000   6.44000000 
  H  22.94700000  30.37000000   5.57400000 
  H  30.36500000  10.22700000   5.57900000 
  H   2.81400000  22.95200000   5.57500000 
  H  22.93700000   2.82700000  17.46200000 
  H  10.21800000  30.36500000  17.47200000 
  H   2.81300000  10.22700000  17.45700000 
  H  30.36600000  22.96200000  17.46000000 
  H  22.95100000  30.36600000  17.49800000 
  H  10.22100000   2.81700000  17.49400000 
  H   2.81100000  22.94900000  17.48100000 
  H  30.36400000  10.22700000  17.48200000 
  H  10.22700000  30.36900000   5.59000000 
  H  22.95000000   2.81700000   5.59100000 
  H  30.35800000  22.97000000   5.60000000 
  H   2.82700000  10.23100000   5.59700000 
  C  20.56900000  24.71000000   6.82700000 
  C  24.71000000  12.61000000   6.82700000 
  C   8.46500000  20.57100000   6.83300000 
  C  20.53200000   8.47200000  16.20500000 
  C  12.61900000  24.71500000  16.21700000 
  C   8.47100000  12.61100000  16.23300000 
  C  24.70900000  20.56300000  16.21500000 
  C  20.55400000  24.71600000  16.21900000 
  C  12.61600000   8.46900000  16.21300000 
  C   8.46900000  20.57400000  16.23100000 
  C  24.70900000  12.61000000  16.23400000 
  C  12.60700000  24.70900000   6.82700000 
  C  20.56100000   8.46800000   6.82300000 
  C  24.70900000  20.56500000   6.84700000 
  C   8.47900000  12.63200000   6.80800000 
  C  19.70300000  24.67300000   7.92900000 
  C  24.67200000  13.47700000   7.92800000 
  C   8.50300000  19.70500000   7.93400000 
  C  19.66100000   8.50800000  15.10700000 
  C  13.48700000  24.68600000  15.11900000 
  C   8.51100000  13.47800000  15.13300000 
  C  24.68000000  19.69400000  15.11800000 
  C  19.68900000  24.68900000  15.11900000 
  C  13.47000000   8.49800000  15.10400000 
  C   8.50900000  19.70700000  15.13100000 
  C  24.67200000  13.47700000  15.13400000 
  C  13.47500000  24.67100000   7.92800000 
  C  19.68600000   8.50300000   7.91700000 
  C  24.68000000  19.69600000   7.94400000 
  C   8.52000000  13.49500000   7.91200000 
  H  19.28800000  23.72800000   8.26600000 
  H  23.72600000  13.89100000   8.26600000 
  H   9.44900000  19.28900000   8.27000000 
  H  19.24200000   9.45200000  14.77100000 
  H  13.91100000  23.74600000  14.78000000 
  H   9.45700000  13.89200000  14.79600000 
  H  23.74000000  19.26800000  14.78000000 
  H  19.26800000  23.74900000  14.77600000 
  H  13.88600000   9.43900000  14.75600000 
  H   9.45400000  19.29000000  14.79600000 
  H  23.72600000  13.89100000  14.79600000 
  H  13.89200000  23.72600000   8.26200000 
  H  19.26900000   9.44800000   8.25500000 
  H  23.74000000  19.26900000   8.28000000 
  H   9.46600000  13.91500000   8.24300000 
  C  19.35200000  25.86700000   8.56900000 
  C  25.86500000  13.82800000   8.56900000 
  C   7.31100000  19.35500000   8.57600000 
  C  19.31400000   7.31300000  14.46500000 
  C  13.82700000  25.88300000  14.48100000 
  C   7.31900000  13.83000000  14.49000000 
  C  25.87800000  19.35500000  14.48100000 
  C  19.34700000  25.88800000  14.48600000 
  C  13.80800000   7.30000000  14.46600000 
  C   7.31700000  19.35600000  14.48800000 
  C  25.86500000  13.82900000  14.49400000 
  C  13.82400000  25.86300000   8.57200000 
  C  19.32700000   7.30900000   8.55000000 
  C  25.87700000  19.35600000   8.58300000 
  C   7.33100000  13.83600000   8.56500000 
  C  19.88300000  27.08700000   8.11900000 
  C  27.08500000  13.30100000   8.11800000 
  C   6.09100000  19.88400000   8.12800000 
  C  19.84700000   6.09400000  14.91400000 
  C  13.29000000  27.09900000  14.93200000 
  C   6.09800000  13.30200000  14.93700000 
  C  27.09300000  19.89600000  14.92900000 
  C  19.88000000  27.10300000  14.94200000 
  C  13.28200000   6.08300000  14.92700000 
  C   6.09600000  19.88600000  14.93500000 
  C  27.08500000  13.30100000  14.94400000 
  C  13.29100000  27.08300000   8.12600000 
  C  19.85800000   6.08900000   8.10200000 
  C  27.09200000  19.89600000   8.13500000 
  C   6.11000000  13.30300000   8.12200000 
  H  19.58900000  28.00300000   8.62700000 
  H  28.00200000  13.59500000   8.62500000 
  H   5.17500000  19.59000000   8.63500000 
  H  19.55500000   5.17800000  14.40500000 
  H  13.57900000  28.01800000  14.42700000 
  H   5.18300000  13.59600000  14.42800000 
  H  28.01200000  19.60800000  14.42400000 
  H  19.59000000  28.02400000  14.44000000 
  H  13.57000000   5.16300000  14.42300000 
  H   5.18100000  19.59200000  14.42600000 
  H  28.00200000  13.59600000  14.43700000 
  H  13.58300000  27.99900000   8.63500000 
  H  19.55900000   5.17100000   8.60300000 
  H  28.01100000  19.60800000   8.64100000 
  H   5.19600000  13.59000000   8.63800000 
  C  20.75800000  27.13000000   7.02900000 
  C  27.13000000  12.42600000   7.02800000 
  C   6.04600000  20.75900000   7.03800000 
  C  20.72400000   6.05200000  16.00200000 
  C  12.41300000  27.13400000  16.02000000 
  C   6.05100000  12.42800000  16.02700000 
  C  27.12700000  20.77300000  16.01700000 
  C  20.75400000  27.13700000  16.03400000 
  C  12.41600000   6.04800000  16.02500000 
  C   6.05000000  20.76100000  16.02400000 
  C  27.13000000  12.42600000  16.03400000 
  C  12.41500000  27.12800000   7.03600000 
  C  20.74300000   6.04800000   7.02000000 
  C  27.12700000  20.77400000   7.04700000 
  C   6.06100000  12.43400000   7.02800000 
  C  21.09600000  25.93300000   6.38600000 
  C  25.93300000  12.08500000   6.38600000 
  C   7.24300000  21.09900000   6.39400000 
  C  21.06100000   7.25000000  16.64400000 
  C  12.08200000  25.93200000  16.65900000 
  C   7.24700000  12.08600000  16.67200000 
  C  25.92500000  21.10300000  16.65600000 
  C  21.08800000  25.93300000  16.66800000 
  C  12.08700000   7.25000000  16.66300000 
  C   7.24600000  21.10100000  16.66900000 
  C  25.93300000  12.08600000  16.67600000 
  C  12.07800000  25.93200000   6.39000000 
  C  21.08900000   7.24600000   6.38300000 
  C  25.92600000  21.10500000   6.40700000 
  C   7.25500000  12.10100000   6.37500000 
  H  21.76200000  25.93700000   5.52600000 
  H  25.93800000  11.41800000   5.52600000 
  H   7.23700000  21.76600000   5.53400000 
  H  21.73200000   7.24800000  17.50100000 
  H  11.41300000  25.92900000  17.51800000 
  H   7.24000000  11.41800000  17.53100000 
  H  25.92100000  21.77200000  17.51500000 
  H  21.75500000  25.92800000  17.52700000 
  H  11.42600000   7.25300000  17.52800000 
  H   7.24000000  21.76900000  17.52800000 
  H  25.93700000  11.41800000  17.53500000 
  H  11.41000000  25.93700000   5.53100000 
  H  21.76500000   7.24300000   5.53000000 
  H  25.92400000  21.77300000   5.54900000 
  H   7.24700000  11.43500000   5.51500000 
  C  21.31800000  28.44600000   6.54500000 
  C  28.44700000  11.86600000   6.54700000 
  C   4.72800000  21.31500000   6.55500000 
  C  21.28900000   4.73700000  16.48500000 
  C  11.84600000  28.44500000  16.50700000 
  C   4.73400000  11.86600000  16.50300000 
  C  28.43700000  21.34200000  16.50200000 
  C  21.31700000  28.44800000  16.52700000 
  C  11.85600000   4.73600000  16.52000000 
  C   4.73300000  21.32000000  16.50600000 
  C  28.44600000  11.86600000  16.51500000 
  C  11.85300000  28.44400000   6.55700000 
  C  21.30900000   4.73400000   6.54300000 
  C  28.43900000  21.34200000   6.56400000 
  C   4.74400000  11.87100000   6.55500000 
  H  20.63800000  29.25800000   6.84300000 
  H  29.25800000  12.54800000   6.84500000 
  H   3.91900000  20.62900000   6.85100000 
  H  20.61400000   3.92200000  16.18100000 
  H  12.53100000  29.25900000  16.22300000 
  H   3.92200000  12.54700000  16.20300000 
  H  29.25400000  20.66400000  16.21000000 
  H  20.63000000  29.26200000  16.24700000 
  H  12.54300000   3.92300000  16.23800000 
  H   3.92100000  20.64000000  16.20100000 
  H  29.25800000  12.54800000  16.21700000 
  H  12.53500000  29.25600000   6.85600000 
  H  20.62800000   3.92000000   6.83600000 
  H  29.25300000  20.65700000   6.84800000 
  H   3.93300000  12.55400000   6.85400000 
  H  21.33100000  28.45300000   5.44400000 
  H  28.45700000  11.85000000   5.44600000 
  H   4.72000000  21.33300000   5.45500000 
  H  21.29800000   4.72600000  17.58500000 
  H  11.81900000  28.44400000  17.60700000 
  H   4.72000000  11.84700000  17.60300000 
  H  28.44100000  21.36100000  17.60200000 
  H  21.34400000  28.44200000  17.62700000 
  H  11.83100000   4.74300000  17.62000000 
  H   4.72100000  21.32800000  17.60600000 
  H  28.45600000  11.84900000  17.61500000 
  H  11.83800000  28.45400000   5.45700000 
  H  21.33500000   4.72500000   5.44300000 
  H  28.44000000  21.36900000   5.46400000 
  H   4.73000000  11.85000000   5.45500000 
  C  25.37200000  31.36700000   6.14100000 
  C  31.35800000   7.80800000   6.15000000 
  C   1.81600000  25.37500000   6.14500000 
  C  25.37100000   1.85000000  16.89800000 
  C   7.80100000  31.36200000  16.90600000 
  C   1.83800000   7.80200000  16.88800000 
  C  31.35500000  25.38300000  16.90600000 
  C  25.36900000  31.37000000  16.91900000 
  C   7.80100000   1.81500000  16.92000000 
  C   1.81900000  25.37600000  16.92000000 
  C  31.35600000   7.80600000  16.91300000 
  C   7.80300000  31.36200000   6.15100000 
  C  25.37800000   1.84500000   6.16300000 
  C  31.35700000  25.38300000   6.16500000 
  C   1.84700000   7.80300000   6.17000000 
  C  25.28100000  27.78800000   9.67100000 
  C  27.77400000   7.92400000   9.69100000 
  C   5.36700000  25.26100000   9.70500000 
  C  25.25000000   5.42900000  13.36500000 
  C   7.89900000  27.79300000  13.35700000 
  C   5.42800000   7.91900000  13.36500000 
  C  27.75700000  25.31400000  13.39000000 
  C  25.25200000  27.81900000  13.36000000 
  C   7.91900000   5.36800000  13.35800000 
  C   5.39500000  25.28800000  13.38700000 
  C  27.77400000   7.92400000  13.37000000 
  C   7.88700000  27.78200000   9.68100000 
  C  25.25100000   5.42400000   9.69500000 
  C  27.78800000  25.28700000   9.71800000 
  C   5.42500000   7.92700000   9.70200000 
  C  20.88800000  23.44500000   6.08600000 
  C  23.44500000  12.29200000   6.08600000 
  C   9.73100000  20.88000000   6.09100000 
  C  20.85400000   9.73600000  16.94700000 
  C  12.31300000  23.44700000  16.95500000 
  C   9.73400000  12.29000000  16.97500000 
  C  23.44100000  20.86900000  16.95200000 
  C  20.86400000  23.44600000  16.95300000 
  C  12.31200000   9.73700000  16.95400000 
  C   9.73300000  20.89300000  16.97300000 
  C  23.44600000  12.29000000  16.97400000 
  C  12.28900000  23.44500000   6.08400000 
  C  20.88400000   9.73300000   6.08600000 
  C  23.44100000  20.86900000   6.10800000 
  C   9.73800000  12.31900000   6.05500000 
  C  18.36600000  25.85600000   9.70000000 
  C  25.85300000  14.81400000   9.70000000 
  C   7.32600000  18.36700000   9.70400000 
  C  18.32900000   7.32400000  13.33200000 
  C  14.81400000  25.87700000  13.35500000 
  C   7.33300000  14.81600000  13.36000000 
  C  25.87100000  18.36600000  13.35600000 
  C  18.36200000  25.88200000  13.35700000 
  C  14.78400000   7.30700000  13.32900000 
  C   7.33000000  18.36700000  13.36000000 
  C  25.85400000  14.81400000  13.36300000 
  C  14.81200000  25.85200000   9.70000000 
  C  18.33300000   7.31800000   9.67300000 
  C  25.86900000  18.36600000   9.70700000 
  C   7.34400000  14.81700000   9.70000000 
  O  28.33800000   1.41000000   4.60900000 
  O   1.40600000   4.84000000   4.61100000 
  O  31.77300000  28.34000000   4.61000000 
  O  28.33600000  31.78600000  18.43500000 
  O   4.82900000   1.39600000  18.43700000 
  O  31.77900000   4.84500000  18.44300000 
  O   1.40300000  28.33900000  18.45000000 
  O  28.33700000   1.41900000  18.44900000 
  O   4.84700000  31.73600000  18.44500000 
  O  31.77200000  28.34100000  18.45300000 
  O   1.40400000   4.83200000  18.44000000 
  O   4.83600000   1.40400000   4.62600000 
  O  28.34000000  31.78200000   4.63400000 
  O   1.40400000  28.34700000   4.62900000 
  O  31.78000000   4.84400000   4.62400000 
  O  26.68100000   1.46000000   3.02800000 
  O   1.45900000   6.50300000   3.03900000 
  O  31.72100000  26.68400000   3.02800000 
  O  26.71000000  31.78900000  20.04500000 
  O   6.45200000   1.39200000  20.04900000 
  O  31.78100000   6.48300000  20.04300000 
  O   1.39900000  26.69800000  20.04800000 
  O  26.68100000   1.46100000  20.02900000 
  O   6.49200000  31.72400000  20.04100000 
  O  31.72000000  26.68800000  20.03700000 
  O   1.46100000   6.50700000  19.99500000 
  O   6.45900000   1.39500000   3.01400000 
  O  26.72100000  31.79200000   3.01600000 
  O   1.39100000  26.72600000   3.01400000 
  O  31.78100000   6.47700000   3.02100000 
  C  27.76300000   1.88000000   3.56800000 
  C   1.87700000   5.41700000   3.57100000 
  C  31.30300000  27.76600000   3.56800000 
  C  27.77300000  31.34200000  19.49300000 
  C   5.39000000   1.84000000  19.49600000 
  C  31.33500000   5.41400000  19.49700000 
  C   1.84800000  27.76600000  19.50300000 
  C  27.76200000   1.88500000  19.49200000 
  C   5.42000000  31.28600000  19.49600000 
  C  31.30100000  27.76800000  19.49500000 
  C   1.87500000   5.41500000  19.47500000 
  C   5.39700000   1.84600000   3.56700000 
  C  27.78100000  31.34200000   3.57200000 
  C   1.84300000  27.78600000   3.56800000 
  C  31.33400000   5.41100000   3.56900000 
  C  28.41400000   3.07300000   2.93400000 
  C   3.06600000   4.76700000   2.93300000 
  C  30.11300000  28.41900000   2.93200000 
  C  28.41100000  30.14300000  20.13000000 
  C   4.75200000   3.03700000  20.13100000 
  C  30.13800000   4.77400000  20.13600000 