 &CONTROL 
    calculation = 'vc-relax' 
    verbosity   = 'high' 
    !restart_mode= 'restart' 
    wf_collect  = .true. 
    outdir      = './' 
    prefix      = 'pwscf' 
    pseudo_dir  = '/scratch/ongari/0_LIBRARIES/2_espresso/pbe.1.0.0' 
      !nstep        = 50
      !etot_conv_thr= 1.0D-4
      !forc_conv_thr= 1.0D-3
    !max_seconds  = 3500
    !disk_io      = 'none'
 / 
 &SYSTEM 
    ibrav = 0 
    nat   = 840 
    ntyp  = 4 
    !nosym  = .true. 
      ecutwfc = 70 
      ecutrho = 350 
    occupations = 'smearing' 
    smearing    = 'gaussian' 
    degauss     = 0.02 
      tot_charge                 = 0.0 
      nspin                      = 1 
      tot_magnetization          = -1 
      !starting_magnetization(i) = +0.1 
    !vdw_corr    = 'grimme-d2' 
    !input_dft   = 'vdw-df2-b86r' 
    !input_dft   = 'rvv10' 
 / 
 &ELECTRONS 
    scf_must_converge = .false. 
    electron_maxstep  = 100 
    conv_thr          = 1.0d-6 
    mixing_mode       = 'local-TF' 
    mixing_beta       = 0.7 
    diagonalization   = 'david' 
 / 
 &IONS 
    ion_dynamics = 'bfgs' 
 / 
 &CELL 
    cell_dynamics  = 'bfgs' 
    press          = 0.0 
    !cell_factor    = 2.0 
    press_conv_thr = 0.5 
    cell_dofree    = 'all' 
 / 
ATOMIC_SPECIES 
  H    1.008   H.pbe-kjpaw_psl.1.0.0.UPF   ! 	 46.Ry	 221.Ry
  C   12.011   C.pbe-n-kjpaw_psl.1.0.0.UPF ! 	 40.Ry	 326.Ry
  O   15.999   O.pbe-n-kjpaw_psl.1.0.0.UPF ! 	 47.Ry	 323.Ry
 Cu   63.546   Cu.pbe-dn-kjpaw_psl.1.0.0.UPF ! 	 45.Ry	 236.Ry (spn available)
 
K_POINTS gamma 
 
CELL_PARAMETERS angstrom 
33.17600000  0.00000000  0.00000000
 0.00000000 33.18200000  0.00000000
 0.00000000  0.00000000 23.06300000
 
ATOMIC_POSITIONS angstrom 
 Cu   7.58005248   7.55189138  11.52688740 
 Cu   5.81707984   5.79888632  11.53103874 
 Cu  11.24699576  11.25997988   3.86789573 
 Cu  12.51498248  12.52686864   5.59300813 
 Cu  16.55615104   8.57091060  11.49990369 
 Cu  16.55615104   6.08192878  11.49805865 
  O   6.71084128   1.40293496   6.66405385 
  O   8.35404856   1.39795766   5.06809425 
  O   8.48509376   6.49305376  10.07207336 
  O   6.84089120   4.89998594  10.12004440 
  O  11.61292704   9.62112090   4.94793602 
  O  12.74489216  10.81600472   6.53905239 
  O  15.12991480   6.19209302  10.12396511 
  O  15.19493976   8.48297830  10.05708241 
  C   8.50798520   2.93892974   6.85293982 
  C   7.90915840   3.59991518   7.93505578 
  H   6.92913936   3.29397714   8.28907283 
  C   8.57599600   4.67501198   8.53907575 
  C   9.84497800   5.06987778   8.07989142 
  H  10.33797336   5.91104148   8.56190812 
  C  10.45807048   4.39495590   7.01807090 
  C   9.77298608   3.33910466   6.40505636 
  H  10.21489040   2.81416542   5.56095056 
  C  12.60389416   8.47501462   6.77291121 
  C  13.46315256   8.51516484   7.87993521 
  H  13.87884784   9.46085184   8.21596312 
  C  13.80586064   7.32393104   8.52892803 
  C  13.27803048   6.10316526   8.07989142 
  H  13.56500288   5.18800570   8.59396569 
  C  12.41213688   6.05704228   6.98301514 
  C  12.07904984   7.25192610   6.33402232 
  H  11.41685688   7.24495788   5.47008234 
  C  11.85013544   4.74104416   6.50491915 
  H  12.53488808   3.92908062   6.79389854 
  H  11.82193584   4.73507140   5.40504468 
  C   7.80100464   1.82102816   6.14398320 
  C   7.92309232   5.41895242   9.67008527 
  C  12.28706336   9.73692608   6.02705379 
  C  14.78388912   7.33687202   9.66708708 
  O   4.84303248  31.77707412   4.60890992 
  O   6.49586080  31.72796476   3.02402056 
  C   5.41697728  31.30788064   3.56692358 
  C   4.76606416  30.11498774   2.93407486 
  C   3.60191832  29.57412114   3.49196883 
  H   3.15006120  30.03302820   4.36697905 
  C   5.35991456  29.50510258   1.81805629 
  H   6.26993224  29.94011860   1.40891867 
  C   4.80388480  28.35302354   1.25301279 
  C   5.41299616  27.72986558   0.00991709 
  H   5.23815864  26.64514600   0.01591347 
  O  13.00797784  10.96200552   2.95506219 
  O  14.13795240  12.14693474   4.55609565 
  C  14.06795104  11.41394436   3.50995797 
  C  15.38105712  11.02106948   2.89901910 
  C  16.58800000  11.45011274   3.47098150 
  H  16.58003776  12.09583446   4.34391605 
  C  15.39598632  10.17094664   1.78392305 
  H  14.44615744   9.84808578   1.36394582 
  C  16.60491976   9.73593062   1.23202546 
  C  16.60591504   8.86689404  -0.01199276 
  H  15.72608752   8.20989044  -0.00599638 
 Cu  27.47304560   0.02090466  17.35606065 
 Cu   5.68802520  -0.01393644  17.36205703 
 Cu  -0.00099528  27.48498242  17.36390207 
 Cu   0.01194336   5.70000396  17.35098679 
 Cu   5.69499216  -0.00298638   5.70301864 
 Cu  27.47901728   0.01791828   5.70901502 
 Cu  -0.00298584  27.48697334   5.70394116 
 Cu   0.01691976   5.70398580   5.70809250 
 Cu  25.69315320   0.01990920  19.08394061 
 Cu   7.47587984  -0.01393644  19.09109014 
 Cu  -0.01492920  25.69614080  19.08901447 
 Cu   0.01293864   7.49315924  19.07310100 
 Cu   7.48085624  -0.00995460   3.97098734 
 Cu  25.69812960   0.01692282   3.97698372 
 Cu  -0.01293864  25.70012264   3.97398553 
 Cu   0.01691976   7.48785012   3.98597829 
 Cu  25.62713296  25.65001782  11.53703512 
 Cu  25.61784368   7.58009608  11.52988559 
 Cu   7.53493312  25.63807230  11.52988559 
 Cu  27.36787768  27.42392754  11.53311441 
 Cu  27.36588712   5.81614096  11.53103874 
 Cu   5.76996992  27.38610006  11.52896307 
 Cu  21.92601840  21.91405644   3.93108835 
 Cu  21.92402784  11.25500258   3.91909559 
 Cu  11.25197216  21.91803828   3.92209378 
 Cu  21.91805616  11.25201620  19.12499275 
 Cu  11.25993440  21.92799288  19.13098913 
 Cu  11.25794384  11.25400712  19.13606299 
 Cu  21.91805616  21.92002920  19.11092432 
 Cu  20.66201280  20.65015406   5.65989083 
 Cu  20.65803168  12.51691404   5.64789807 
 Cu  12.51199664  20.65214498   5.65297193 
 Cu  20.65504584  12.51691404  17.41002807 
 Cu  12.52493528  20.66906780  17.41210374 
 Cu  12.52493528  12.51591858  17.41302626 
 Cu  20.65305528  20.65811774  17.40702988 
 Cu  16.58899528  24.61706216  11.52896307 
 Cu  24.61294264  16.58801362  11.53103874 
 Cu   8.58495352  16.59199546  11.53196126 
 Cu  16.58899528  27.10604398  11.52688740 
 Cu  27.10014736  16.58701816  11.53103874 
 Cu   6.09310416  16.59000454  11.53103874 
  O  26.45885528  31.79001510   6.66290070 
  O  31.78293976   6.71902318   6.66797456 
  O   1.40102248  26.46695866   6.66290070 
  O  26.47909264   1.45801708  16.39710111 
  O   6.70586488  31.77707412  16.39502544 
  O   1.44713712   6.69314122  16.39110473 
  O  31.77497752  26.47691326  16.39710111 
  O  26.45885528  31.79101056  16.40009930 
  O   6.70984600   1.39795766  16.40309749 
  O   1.40201776  26.46795412  16.40194434 
  O  31.77895864   6.71603680  16.39594796 
  O   6.70984600  31.77806958   6.66405385 
  O  26.48605960   1.45901254   6.66497637 
  O  31.77298696  26.47989964   6.67005023 
  O   1.45509936   6.69513214   6.66889708 
  O  24.81996088  31.78503780   5.06302039 
  O  31.77696808   8.35987308   5.07201496 
  O   1.39803664  24.82411784   5.06601858 
  O  24.80801752   1.40094404  17.95708243 
  O   8.35902496  31.78304688  17.97899228 
  O   1.39306024   8.37015950  17.94601219 
  O  31.77696808  24.82113146  17.97691661 
  O  24.81896560  31.78603326  17.99790394 
  O   8.35404856   1.39596674  17.99790394 
  O   1.39704136  24.82312238  17.99490575 
  O  31.77497752   8.36086854  17.98798685 
  O   8.36101552  31.78304688   5.07708882 
  O  24.81398920   1.39596674   5.10499505 
  O  31.77995392  24.82013600   5.09600048 
  O   1.39704136   8.36916404   5.11398962 
  O  24.75095480  26.69392354  10.06400131 
  O  26.71099288   8.49193744  10.11197235 
  O   6.43083584  24.69703078  10.13111464 
  O  24.69090624   6.49803106  12.94595379 
  O   8.48409848  26.74502382  12.91989260 
  O   6.49785136   8.47999192  12.94895198 
  O  26.67615808  24.75908112  12.99600050 
  O  24.68991096  26.75298750  12.93511418 
  O   8.48210792   6.43598072  12.93811237 
  O   6.48988912  24.75709020  12.99807617 
  O  26.71099288   8.49193744  12.94802946 
  O   8.42106408  26.68595986  10.06607698 
  O  24.69090624   6.49404922  10.11197235 
  O  26.74615944  24.69902170  10.16593977 
  O   6.49387024   8.48795560  10.11889125 
  O  26.34108048  28.34107802  10.12996149 
  O  28.28287176   6.83084652  10.12396511 
  O   4.85199000  26.35613078  10.12488763 
  O  26.34008520   4.90894508  12.93603670 
  O   6.78714608  28.28201406  12.94895198 
  O   4.91004800   6.82885560  12.93511418 
  O  28.27690008  26.39495372  12.94111056 
  O  26.34307104  28.33908710  12.93695922 
  O   6.82894784   4.84888566  12.93004032 
  O   4.84402776  26.34783528  12.92796465 
  O  28.28287176   6.83084652  12.93903489 
  O   6.82198088  28.32515066  10.14103173 
  O  26.34108048   4.90695416  10.12604078 
  O  28.27391424  26.40291740  10.11889125 
  O   4.90805744   6.83615564  10.12903897 
  O  21.56008712  23.55988364   5.00397911 
  O  23.55794584  11.61502728   5.00789982 
  O   9.62203528  21.56796818   5.01989258 
  O  21.56307296   9.62410728  18.00505347 
  O  11.60994120  23.55490634  18.01704623 
  O   9.61904944  11.61502728  18.05510018 
  O  23.55097888  21.56995910  18.01497056 
  O  21.56605880  23.55490634  18.01497056 
  O  11.61193176   9.62808912  18.01704623 
  O   9.61904944  21.56697272  18.05302451 
  O  23.55794584  11.61403182  18.05302451 
  O  11.61591288  23.55888818   5.00305659 
  O  21.56406824   9.62112090   5.00905297 
  O  23.55097888  21.57095456   5.04710692 
  O   9.62303056  11.61502728   4.99498454 
  O  20.43309840  22.36699074   6.60109186 
  O  22.36792272  12.75283806   6.59901619 
  O  10.80409616  20.39597994   6.59509548 
  O  20.36807344  10.81401380  16.45798743 
  O  12.80593600  22.37395896  16.46306129 
  O  10.81404896  12.74586984  16.46306129 
  O  22.36493688  20.38005258  16.46006310 
  O  20.37603568  22.37097258  16.46006310 
  O  12.80593600  10.81003196  16.46190814 
  O  10.81305368  20.43613016  16.46190814 
  O  22.36593216  12.74686530  16.46190814 
  O  12.74588744  22.36699074   6.59901619 
  O  20.42215032  10.81003196   6.59901619 
  O  22.36991328  20.37507528   6.60201438 
  O  10.81404896  12.80991110   6.54089743 
  O  17.98305080  27.00284796  10.12304259 
  O  26.99896056  15.19602872  10.12396511 
  O   6.17903000  17.98398036  10.12696330 
  O  17.98106024   6.17915204  12.87607290 
  O  15.19693032  27.02209352  12.93303851 
  O   6.18599696  15.19801964  12.93695922 
  O  27.01588032  17.98298490  12.93511418 
  O  17.98006496  27.02607536  12.93396103 
  O  15.19792560   6.16189740  12.93511418 
  O   6.18400640  17.98398036  12.93695922 
  O  26.99995584  15.19702418  12.93903489 
  O  15.19394448  26.99886612  10.12304259 
  O  17.91603528   6.17284746  10.06307879 
  O  27.01388976  17.98298490  10.12788582 
  O   6.19694504  15.19801964  10.12488763 
  O  17.98305080  24.71096722  10.11796873 
  O  24.70815776  15.19503326  10.12004440 
  O   8.47215512  17.98597128  10.12096692 
  O  17.91603528   8.46804640  12.94203308 
  O  15.19693032  24.73286734  12.93695922 
  O   8.47912208  15.19702418  12.94295560 
  O  24.72806336  17.98198944  12.93811237 
  O  17.98006496  24.73784464  12.93811237 
  O  15.12991480   8.44913266  12.87607290 
  O   8.47713152  17.98597128  12.94295560 
  O  24.70815776  15.19503326  12.94295560 
  O  15.19394448  24.70598992  10.11889125 
  O  17.98205552   8.46207364  10.12096692 
  O  24.72607280  17.98198944  10.12488763 
  O   8.48907488  15.19702418  10.12004440 
  C  24.66502896  30.25003848   6.85293982 
  C  30.24191456   8.51383756   6.86493258 
  C   2.92313736  24.66185786   6.86493258 
  C  24.65408088   2.95983440  16.18307647 
  C   8.50698992  30.25302486  16.18399899 
  C   2.94801936   8.51383756  16.17408190 
  C  30.23992400  24.68408980  16.18907285 
  C  24.65706672  30.25999308  16.20198813 
  C   8.51395688   2.92300238  16.19991246 
  C   2.93408544  24.66915790  16.20590884 
  C  30.24091928   8.51383756  16.19691427 
  C   8.50898048  30.24904302   6.86793077 
  C  24.66005256   2.95187072   6.87692534 
  C  30.24689096  24.68110342   6.88799558 
  C   2.95697688   8.51914668   6.88199920 
  C  25.27314504  29.59303488   7.93090444 
  C  29.58303920   7.91191608   7.94589539 
  C   3.57006936  25.26212024   7.95304492 
  C  25.25589352   3.62314258  15.10603437 
  C   7.90086440  29.60099856  15.10096051 
  C   3.61187112   7.91191608  15.09703980 
  C  29.57905808  25.29994772  15.11802713 
  C  25.25489824  29.61493500  15.11110823 
  C   7.91513008   3.57005138  15.10995508 
  C   3.58997496  25.27804760  15.12794422 
  C  29.58204392   7.91191608  15.11502894 
  C   7.89986912  29.59303488   7.94497287 
  C  25.25887936   3.61186070   7.95788815 
  C  29.59498256  25.28601128   7.97195658 
  C   3.61684752   7.92087522   7.96296201 
  H  26.25415936  29.90195930   8.27800259 
  H  29.88693136   6.92906524   8.29299354 
  H   3.26186432  26.24397562   8.29991244 
  H  26.24387480   3.32915006  14.76193441 
  H   6.91785952  29.90992298  14.75593803 
  H   3.31096480   6.92806978  14.74901913 
  H  29.88693136  26.28412584  14.77600284 
  H  26.23491728  29.92585034  14.76101189 
  H   6.93411576   3.26013150  14.76193441 
  H   3.28210168  26.26089844  14.78407489 
  H  29.88494080   6.92906524  14.76700827 
  H   6.91785952  29.90096384   8.29091787 
  H  26.24287952   3.30890904   8.30590882 
  H  29.90484640  26.26886212   8.31605654 
  H   3.31295536   6.93802438   8.31305835 
  C  24.61194736  28.51893354   8.54207394 
  C  28.51510376   8.58086520   8.56006308 
  C   4.63402368  24.59516204   8.57505403 
  C  24.58507480   4.68795296  14.49002164 
  C   8.56504792  28.53286998  14.48310274 
  C   4.68212888   8.58186066  14.48794597 
  C  28.50316040  24.64194866  14.50801078 
  C  24.58806064  28.54912916  14.49301983 
  C   8.58196768   4.63486176  14.49094416 
  C   4.66189152  24.61706216  14.51492968 
  C  28.51410848   8.58186066  14.50109188 
  C   8.56007152  28.51893354   8.55798741 
  C  24.58905592   4.68098474   8.56905765 
  C  28.52704712  24.62203946   8.59004498 
  C   4.68411944   8.59115162   8.57597655 
  C  23.33997952  28.12008590   8.09603552 
  C  28.12196816   9.85405854   8.11010395 
  C   5.03412624  23.32395962   8.12601742 
  C  23.30713528   5.07286416  14.93306187 
  C   9.83701576  28.13402234  14.93190872 
  C   5.07095160   9.85505400  14.93998077 
  C  28.10604368  23.36709622  14.95105101 
  C  23.32007392  28.14596786  14.94597715 
  C   9.85094968   5.03702760  14.94205644 
  C   5.06000352  23.34386882  14.95796991 
  C  28.12196816   9.85505400  14.95105101 
  C   9.83203936  28.11909044   8.11194899 
  C  23.31609280   5.06987778   8.11494718 
  C  28.12694456  23.34984158   8.14100837 
  C   5.07592800   9.86401314   8.12394175 
  H  22.85096528  27.28091312   8.58589364 
  H  27.28692824  10.34913398   8.60111522 
  H   5.86684384  22.83087510   8.62210255 
  H  22.81015880   5.90506872  14.43997493 
  H  10.32702528  27.29684048  14.43997493 
  H   5.90997264  10.34913398  14.45404336 
  H  27.26304152  22.88197538  14.46396045 
  H  22.82707856  27.31110874  14.45289021 
  H  10.34294976   5.87089126  14.44804698 
  H   5.89902456  22.85509796  14.46811179 
  H  27.28593296  10.34913398  14.46096226 
  H  10.31906304  27.27792674   8.59996207 
  H  22.82011160   5.90705964   8.60111522 
  H  27.29090936  22.86007526   8.63294216 
  H   5.91395376  10.35809312   8.61010979 
  C  22.71693424  28.79301686   7.03905823 
  C  28.79212336  10.46892100   7.04689965 
  C   4.37392384  22.71009262   7.05589422 
  C  22.69205224   4.39893774  15.99303735 
  C  10.45408936  28.79699870  15.99811121 
  C   4.39283416  10.46991646  15.99811121 
  C  28.78183880  22.73896096  16.00295444 
  C  22.70797672  28.80496238  16.01794539 
  C  10.46404216   4.37803308  16.01310216 
  C   4.38785776  22.72004722  16.01494720 
  C  28.79212336  10.46892100  16.01402468 
  C  10.45607992  28.79102594   7.05497170 
  C  22.70300032   4.39396044   7.05404918 
  C  28.79013280  22.73298820   7.07411399 
  C   4.40212344  10.47588922   7.06096808 
  C  23.39704224  29.84687718   6.41497345 
  C  29.84214376   9.78205360   6.42396802 
  C   3.32788456  23.39496910   6.42489054 
  C  23.38111776   3.35204564  16.61896717 
  C   9.77199080  29.84687718  16.62404103 
  C   3.34115496   9.78404452  16.61596898 
  C  29.83915792  23.41487830  16.62288788 
  C  23.39306112  29.85284994  16.64595088 
  C   9.77895776   3.33114098  16.64295269 
  C   3.33385624  23.39994640  16.63995450 
  C  29.84114848   9.78205360  16.63695631 
  C   9.77696720  29.84588172   6.43088692 
  C  23.39206584   3.34408196   6.43388511 
  C  29.84114848  23.41487830   6.44795354 
  C   3.35309832   9.78703090   6.44011212 
  H  22.94684392  30.37015732   5.57409647 
  H  30.36499752  10.22702422   5.57893970 
  H   2.81398832  22.95198940   5.57501899 
  H  22.93689112   2.82710640  17.46191982 
  H  10.21787624  30.36484820  17.47206754 
  H   2.81299304  10.22702422  17.45707659 
  H  30.36599280  22.96194400  17.46007478 
  H  22.95115680  30.36584366  17.49789810 
  H  10.22086208   2.81715180  17.49397739 
  H   2.81100248  22.94900302  17.48106211 
  H  30.36400224  10.22702422  17.48198463 
  H  10.22716552  30.36916186   5.59000994 
  H  22.95016152   2.81715180   5.59093246 
  H  30.35803056  22.96990768   5.59992703 
  H   2.82692696  10.23100606   5.59692884 
  C  20.56912000  24.70997176   6.82710926 
  C  24.71014832  12.61015546   6.82710926 
  C   8.46485640  20.57084908   6.83310564 
  C  20.53196288   8.47202824  16.20498632 
  C  12.61915512  24.71494906  16.21697908 
  C   8.47115984  12.61115092  16.23289255 
  C  24.70915304  20.56288540  16.21490341 
  C  20.55385904  24.71594452  16.21905475 
  C  12.61583752   8.46904186  16.21305837 
  C   8.46883752  20.57383546  16.23104751 
  C  24.70915304  12.61015546  16.23404570 
  C  12.60688000  24.70897630   6.82710926 
  C  20.56115776   8.46804640   6.82295792 
  C  24.70915304  20.56487632   6.84694344 
  C   8.47912208  12.63205558   6.80796697 
  C  19.70289464  24.67313974   7.92905940 
  C  24.67199592  13.47686930   7.92790625 
  C   8.50300880  19.70513070   7.93390263 
  C  19.66109288   8.50786480  15.10695689 
  C  13.48703928  24.68608072  15.11894965 
  C   8.51097104  13.47786476  15.13301808 
  C  24.67995816  19.69384882  15.11802713 
  C  19.68896072  24.68906710  15.11894965 
  C  13.47011952   8.49791020  15.10395870 
  C   8.50898048  19.70712162  15.13094241 
  C  24.67199592  13.47686930  15.13394060 
  C  13.47509592  24.67114882   7.92790625 
  C  19.68597488   8.50288750   7.91706664 
  C  24.67995816  19.69583974   7.94405035 
  C   8.51992856  13.49511940   7.91199278 
  H  19.28786288  23.72811638   8.26600983 
  H  23.72614816  13.89098066   8.26600983 
  H   9.44885656  19.28902842   8.26993054 
  H  19.24208000   9.45189270  14.77092898 
  H  13.91102856  23.74603466  14.77992355 
  H   9.45715056  13.89197612  14.79606765 
  H  23.74008208  19.26812376  14.77992355 
  H  19.26795728  23.74902104  14.77600284 
  H  13.88614656   9.43895172  14.75593803 
  H   9.45416472  19.29002388  14.79606765 
  H  23.72614816  13.89098066  14.79606765 
  H  13.89211824  23.72612546   8.26208912 
  H  19.26895256   9.44791086   8.25493959 
  H  23.74008208  19.26911922   8.28007826 
  H   9.46610808  13.91487170   8.24294683 
  C  19.35189256  25.86702810   8.56905765 
  C  25.86500488  13.82793486   8.56905765 
  C   7.31099512  19.35506060   8.57597655 
  C  19.31407192   7.31298098  14.46511360 
  C  13.82709328  25.88295546  14.48102707 
  C   7.31895736  13.82992578  14.49002164 
  C  25.87794352  19.35506060  14.48102707 
  C  19.34691616  25.88793276  14.48610093 
  C  13.80785120   7.30004000  14.46603612 
  C   7.31696680  19.35605606  14.48794597 
  C  25.86500488  13.82893032  14.49394235 
  C  13.82410744  25.86304626   8.57205584 
  C  19.32701056   7.30899914   8.54991536 
  C  25.87694824  19.35605606   8.58289545 
  C   7.33090072  13.83589854   8.56490631 
  C  19.88304032  27.08713024   8.11909852 
  C  27.08488640  13.30100470   8.11794537 
  C   6.09111360  19.88398168   8.12809309 
  C  19.84687848   6.09387430  14.91391958 
  C  13.28997384  27.09907576  14.93190872 
  C   6.09808056  13.30200016  14.93698258 
  C  27.09284864  19.89592720  14.92891053 
  C  19.88005448  27.10305760  14.94205644 
  C  13.28201160   6.08292424  14.92706549 
  C   6.09609000  19.88597260  14.93490691 
  C  27.08488640  13.30100470  14.94390148 
  C  13.29096912  27.08314840   8.12601742 
  C  19.85815832   6.08889700   8.10203190 
  C  27.09185336  19.89592720   8.13501199 
  C   6.11002392  13.30299562   8.12209671 
  H  19.58910096  28.00295344   8.62694578 
  H  28.00187104  13.59499722   8.62510074 
  H   5.17512424  19.58998916   8.63501783 
  H  19.55492968   5.17805110  14.40491917 
  H  13.57893680  28.01788534  14.42705965 
  H   5.18308648  13.59599268  14.42798217 
  H  28.01215560  19.60790744  14.42406146 
  H  19.59009624  28.02385810  14.43997493 
  H  13.56997928   5.16311920  14.42290831 
  H   5.18109592  19.59198008  14.42590650 
  H  28.00187104  13.59599268  14.43697674 
  H  13.58291792  27.99897160   8.63501783 
  H  19.55891080   5.17108288   8.60296026 
  H  28.01116032  19.60790744   8.64101421 
  H   5.19602512  13.59001992   8.63801602 
  C  20.75789144  27.12993502   7.02891051 
  C  27.13000576  12.42599536   7.02798799 
  C   6.04599424  20.75899102   7.03790508 
  C  20.72405192   6.05206498  16.00203192 
  C  12.41313216  27.13391686  16.02002106 
  C   6.05097064  12.42798628  16.02693996 
  C  27.12701992  20.77292746  16.01702287 
  C  20.75391032  27.13690324  16.03408949 
  C  12.41611800   6.04808314  16.02509492 
  C   6.04997536  20.76098194  16.02394177 
  C  27.13000576  12.42599536  16.03408949 
  C  12.41512272  27.12794410   7.03606004 
  C  20.74296224   6.04808314   7.01991594 
  C  27.12701992  20.77392292   7.04689965 
  C   6.06092344  12.43395904   7.02798799 
  C  21.09595488  25.93306028   6.38591407 
  C  25.93301568  12.08488440   6.38591407 
  C   7.24298432  21.09910652   6.39398612 
  C  21.06112008   7.24993518  16.64410584 
  C  12.08203568  25.93206482  16.65909679 
  C   7.24696544  12.08587986  16.67201207 
  C  25.92505344  21.10308836  16.65609860 
  C  21.08799264  25.93306028  16.66809136 
  C  12.08701208   7.24993518  16.66301750 
  C   7.24597016  21.10109744  16.66901388 
  C  25.93301568  12.08587986  16.67593278 
  C  12.07805456  25.93206482   6.39006541 
  C  21.08898792   7.24595334   6.38291588 
  C  25.92604872  21.10507928   6.40690140 
  C   7.25492768  12.10114358   6.37507446 
  H  21.76212896  25.93704212   5.52589480 
  H  25.93799208  11.41792620   5.52589480 
  H   7.23701264  21.76606472   5.53396685 
  H  21.73193880   7.24794426  17.50089629 
  H  11.41287576  25.92907844  17.51796291 
  H   7.23999848  11.41792620  17.53110882 
  H  25.92107232  21.77203748  17.51496472 
  H  21.75516200  25.92808298  17.52695748 
  H  11.42614616   7.25292156  17.52811063 
  H   7.23999848  21.76905110  17.52811063 
  H  25.93699680  11.41792620  17.53502953 
  H  11.40988992  25.93704212   5.53096866 
  H  21.76511480   7.24296696   5.53004614 
  H  25.92405816  21.77303294   5.54895780 
  H   7.24696544  11.43484902   5.51505519 
  C  21.31790232  28.44593314   6.54504877 
  C  28.44709296  11.86588320   6.54689381 
  C   4.72791176  21.31512134   6.55496586 
  C  21.28903920   4.73706232  16.48497114 
  C  11.84615432  28.44493768  16.50711162 
  C   4.73388344  11.86588320  16.50296028 
  C  28.43714016  21.34199876  16.50203776 
  C  21.31690704  28.44792406  16.52694580 
  C  11.85610712   4.73606686  16.52002690 
  C   4.73288816  21.32009864  16.50595847 
  C  28.44609768  11.86588320  16.51495304 
  C  11.85312128  28.44394222   6.55704153 
  C  21.30894480   4.73407594   6.54297310 
  C  28.43913072  21.34199876   6.56396043 
  C   4.74383624  11.87086050   6.55496586 
  H  20.63812608  29.25789668   6.84302273 
  H  29.25791440  12.54810512   6.84509840 
  H   3.91908088  20.62891758   6.85109478 
  H  20.61390760   3.92211240  16.18100080 
  H  12.53090696  29.25889214  16.22297546 
  H   3.92206672  12.54710966  16.20291065 
  H  29.25393328  20.66409050  16.21006018 
  H  20.63016384  29.26187852  16.24696098 
  H  12.54285032   3.92310786  16.23796641 
  H   3.92107144  20.63986764  16.20106561 
  H  29.25791440  12.54810512  16.21697908 
  H  12.53488808  29.25590576   6.85593801 
  H  20.62784152   3.92012148   6.83610383 
  H  29.25293800  20.65712228   6.84809659 
  H   3.93301480  12.55407788   6.85409297 
  H  21.33084096  28.45290136   5.44402115 
  H  28.45704576  11.84995584   5.44609682 
  H   4.71994952  21.33303962   5.45509139 
  H  21.29799672   4.72611226  17.58507624 
  H  11.81895000  28.44394222  17.60698609 
  H   4.71994952  11.84696946  17.60306538 
  H  28.44112128  21.36091250  17.60191223 
  H  21.34411136  28.44195130  17.62705090 
  H  11.83089336   4.74303508  17.61990137 
  H   4.72094480  21.32806232  17.60606357 
  H  28.45605048  11.84896038  17.61505814 
  H  11.83786032  28.45389682   5.45693643 
  H  21.33515384   4.72511680   5.44309863 
  H  28.44012600  21.36887618   5.46408596 
  H   4.72990232  11.84995584   5.45509139 
  C  25.37200952  31.36694460   6.14098501 
  C  31.35795520   7.80805642   6.14997958 
  C   1.81605424  25.37493904   6.14490572 
  C  25.37101424   1.84989650  16.89802947 
  C   7.80100464  31.36196730  16.90610152 
  C   1.83795040   7.80208366  16.88811238 
  C  31.35496936  25.38290272  16.90610152 
  C  25.36902368  31.36993098  16.91901680 
  C   7.80100464   1.81505540  16.91993932 
  C   1.81904008  25.37593450  16.91993932 
  C  31.35596464   7.80606550  16.91302042 
  C   7.80299520  31.36196730   6.15090210 
  C  25.37798120   1.84491920   6.16289486 
  C  31.35695992  25.38290272   6.16497053 
  C   1.84690792   7.80307912   6.17004439 
  C  25.28110728  27.78793408   9.67100779 
  C  27.77395192   7.92386160   9.69107260 
  C   5.36688152  25.26112478   9.70491040 
  C  25.24992184   5.42890702  13.36500850 
  C   7.89887384  27.79291138  13.35693645 
  C   5.42792536   7.91888430  13.36500850 
  C  27.75703216  25.31388416  13.38991654 
  C  25.25191240  27.81912516  13.35993464 
  C   7.91911120   5.36785214  13.35808960 
  C   5.39508112  25.28800220  13.38691835 
  C  27.77395192   7.92386160  13.37008236 
  C   7.88693048  27.78196132   9.68092488 
  C  25.25091712   5.42392972   9.69499331 
  C  27.78788584  25.28700674   9.71805631 
  C   5.42493952   7.92684798   9.70191221 
  C  20.88794136  23.44507392   6.08609507 
  C  23.44514744  12.29194008   6.08609507 
  C   9.73085256  20.88010532   6.09093830 
  C  20.85410184   9.73593062  16.94692303 
  C  12.31294064  23.44706484  16.95499508 
  C   9.73383840  12.28994916  16.97505989 
  C  23.44083456  20.86915526  16.95199689 
  C  20.86405464  23.44606938  16.95291941 
  C  12.31194536   9.73692608  16.95407256 
  C   9.73284312  20.89304630  16.97298422 
  C  23.44614272  12.28994916  16.97390674 
  C  12.28905392  23.44507392   6.08401940 
  C  20.88396024   9.73294424   6.08609507 
  C  23.44083456  20.86915526   6.10800492 
  C   9.73815128  12.31914932   6.05496002 
  C  18.36590184  25.85607804   9.70006717 
  C  25.85306152  14.81410390   9.70006717 
  C   7.32592432  18.36690064   9.70398788 
  C  18.32907648   7.32393104  13.33202841 
  C  14.81407928  25.87698270  13.35509141 
  C   7.33289128  14.81609482  13.35993464 
  C  25.87097656  18.36590518  13.35601393 
  C  18.36192072  25.88196000  13.35693645 
  C  14.78388912   7.30700822  13.32903022 
  C   7.32990544  18.36690064  13.35993464 
  C  25.85405680  14.81410390  13.36293283 
  C  14.81208872  25.85209620   9.70006717 
  C  18.33305760   7.31795828   9.67308346 
  C  25.86898600  18.36590518   9.70698607 
  C   7.34383936  14.81709028   9.70006717 
  O  28.33794392   1.40990318   4.60890992 
  O   1.40599888   4.83992652   4.61098559 
  O  31.77298696  28.34008256   4.61006307 
  O  28.33595336  31.78603326  18.43494779 
  O   4.82909856   1.39596674  18.43702346 
  O  31.77895864   4.84490382  18.44301984 
  O   1.40301304  28.33908710  18.44993874 
  O  28.33694864   1.41886232  18.44901622 
  O   4.84701360  31.73592844  18.44509551 
  O  31.77199168  28.34107802  18.45293693 
  O   1.40400832   4.83196284  18.44002165 
  O   4.83606552   1.40393042   4.62597654 
  O  28.33993448  31.78205142   4.63404859 
  O   1.40400832  28.34705078   4.62897473 
  O  31.77995392   4.84390836   4.62390087 
  O  26.68113448   1.46000800   3.02794127 
  O   1.45908048   6.50300836   3.03901151 
  O  31.72090064  26.68396894   3.02794127 
  O  26.70999760  31.78901964  20.04497582 
  O   6.45206848   1.39198490  20.04889653 
  O  31.78094920   6.48309916  20.04290015 
  O   1.39903192  26.69790538  20.04797401 
  O  26.68113448   1.46100346  20.02906235 
  O   6.49187968  31.72398292  20.04105511 
  O  31.71990536  26.68795078  20.03690377 
  O   1.46107104   6.50699020  19.99492911 
  O   6.45903544   1.39497128   3.01410347 
  O  26.72094568  31.79200602   3.01594851 
  O   1.39106968  26.72611008   3.01410347 
  O  31.78094920   6.47712640   3.02102237 
  C  27.76300384   1.88009212   3.56807673 
  C   1.87709808   5.41696150   3.57107492 
  C  31.30288304  27.76603396   3.56807673 
  C  27.77295664  31.34205810  19.49307823 
  C   5.39010472   1.83994190  19.49607642 
  C  31.33506376   5.41397512  19.49699894 
  C   1.84790320  27.76603396  19.50299532 
  C  27.76200856   1.88506942  19.49192508 
  C   5.41996312  31.28598052  19.49607642 
  C  31.30089248  27.76802488  19.49492327 
  C   1.87510752   5.41497058  19.47508909 
  C   5.39707168   1.84591466   3.56692358 
  C  27.78091888  31.34205810   3.57199744 
  C   1.84292680  27.78594316   3.56807673 
  C  31.33406848   5.41098874   3.56899925 